*SPEF "ieee 1481-1999"
*DESIGN "Flatten"
*DATE "17:09:04 Monday September 21, 2026"
*VENDOR "The OpenROAD Project"
*PROGRAM "OpenROAD"
*VERSION "26Q3-2056-g41a28926b9"
*DESIGN_FLOW "NAME_SCOPE LOCAL" "PIN_CAP NONE"
*DIVIDER /
*DELIMITER :
*BUS_DELIMITER []
*T_UNIT 1 NS
*C_UNIT 1 PF
*R_UNIT 1 OHM
*L_UNIT 1 HENRY

*NAME_MAP
*1 features_in[0]
*2 features_in[10]
*3 features_in[11]
*4 features_in[12]
*5 features_in[13]
*6 features_in[14]
*7 features_in[15]
*8 features_in[16]
*9 features_in[17]
*10 features_in[18]
*11 features_in[19]
*12 features_in[1]
*13 features_in[20]
*14 features_in[21]
*15 features_in[22]
*16 features_in[23]
*17 features_in[24]
*18 features_in[25]
*19 features_in[26]
*20 features_in[27]
*21 features_in[28]
*22 features_in[29]
*23 features_in[2]
*24 features_in[30]
*25 features_in[31]
*26 features_in[32]
*27 features_in[33]
*28 features_in[34]
*29 features_in[35]
*30 features_in[36]
*31 features_in[37]
*32 features_in[38]
*33 features_in[39]
*34 features_in[3]
*35 features_in[40]
*36 features_in[41]
*37 features_in[42]
*38 features_in[43]
*39 features_in[44]
*40 features_in[45]
*41 features_in[46]
*42 features_in[47]
*43 features_in[48]
*44 features_in[49]
*45 features_in[4]
*46 features_in[50]
*47 features_in[51]
*48 features_in[52]
*49 features_in[53]
*50 features_in[54]
*51 features_in[55]
*52 features_in[56]
*53 features_in[57]
*54 features_in[58]
*55 features_in[59]
*56 features_in[5]
*57 features_in[60]
*58 features_in[61]
*59 features_in[62]
*60 features_in[63]
*61 features_in[64]
*62 features_in[65]
*63 features_in[66]
*64 features_in[67]
*65 features_in[68]
*66 features_in[69]
*67 features_in[6]
*68 features_in[70]
*69 features_in[71]
*70 features_in[72]
*71 features_in[73]
*72 features_in[74]
*73 features_in[75]
*74 features_in[76]
*75 features_in[77]
*76 features_in[78]
*77 features_in[79]
*78 features_in[7]
*79 features_in[8]
*80 features_in[9]
*160 FILLER_0_2
*159 FILLER_0_24
*158 FILLER_0_46
*157 FILLER_0_60
*156 FILLER_0_66
*110 FILLER_10_2
*109 FILLER_10_24
*108 FILLER_10_46
*107 FILLER_10_60
*106 FILLER_10_66
*105 FILLER_11_2
*104 FILLER_11_24
*103 FILLER_11_46
*102 FILLER_11_60
*101 FILLER_11_66
*100 FILLER_12_2
*99 FILLER_12_24
*98 FILLER_12_46
*97 FILLER_12_60
*96 FILLER_12_66
*155 FILLER_1_2
*154 FILLER_1_24
*153 FILLER_1_46
*152 FILLER_1_60
*151 FILLER_1_66
*150 FILLER_2_2
*149 FILLER_2_24
*148 FILLER_2_46
*147 FILLER_2_60
*146 FILLER_2_66
*145 FILLER_3_2
*144 FILLER_3_24
*143 FILLER_3_46
*142 FILLER_3_60
*141 FILLER_3_66
*140 FILLER_4_2
*139 FILLER_4_24
*138 FILLER_4_46
*137 FILLER_4_60
*136 FILLER_4_66
*135 FILLER_5_2
*134 FILLER_5_24
*133 FILLER_5_46
*132 FILLER_5_60
*131 FILLER_5_66
*130 FILLER_6_2
*129 FILLER_6_24
*128 FILLER_6_46
*127 FILLER_6_60
*126 FILLER_6_66
*125 FILLER_7_2
*124 FILLER_7_24
*123 FILLER_7_46
*122 FILLER_7_60
*121 FILLER_7_66
*120 FILLER_8_2
*119 FILLER_8_24
*118 FILLER_8_46
*117 FILLER_8_60
*116 FILLER_8_66
*115 FILLER_9_2
*114 FILLER_9_24
*113 FILLER_9_46
*112 FILLER_9_60
*111 FILLER_9_66
*174 PHY_EDGE_ROW_0_Left_13
*161 PHY_EDGE_ROW_0_Right_0
*184 PHY_EDGE_ROW_10_Left_23
*171 PHY_EDGE_ROW_10_Right_10
*185 PHY_EDGE_ROW_11_Left_24
*172 PHY_EDGE_ROW_11_Right_11
*186 PHY_EDGE_ROW_12_Left_25
*173 PHY_EDGE_ROW_12_Right_12
*175 PHY_EDGE_ROW_1_Left_14
*162 PHY_EDGE_ROW_1_Right_1
*176 PHY_EDGE_ROW_2_Left_15
*163 PHY_EDGE_ROW_2_Right_2
*177 PHY_EDGE_ROW_3_Left_16
*164 PHY_EDGE_ROW_3_Right_3
*178 PHY_EDGE_ROW_4_Left_17
*165 PHY_EDGE_ROW_4_Right_4
*179 PHY_EDGE_ROW_5_Left_18
*166 PHY_EDGE_ROW_5_Right_5
*180 PHY_EDGE_ROW_6_Left_19
*167 PHY_EDGE_ROW_6_Right_6
*181 PHY_EDGE_ROW_7_Left_20
*168 PHY_EDGE_ROW_7_Right_7
*182 PHY_EDGE_ROW_8_Left_21
*169 PHY_EDGE_ROW_8_Right_8
*183 PHY_EDGE_ROW_9_Left_22
*170 PHY_EDGE_ROW_9_Right_9

*PORTS
features_in[0] I
features_in[10] I
features_in[11] I
features_in[12] I
features_in[13] I
features_in[14] I
features_in[15] I
features_in[16] I
features_in[17] I
features_in[18] I
features_in[19] I
features_in[1] I
features_in[20] I
features_in[21] I
features_in[22] I
features_in[23] I
features_in[24] I
features_in[25] I
features_in[26] I
features_in[27] I
features_in[28] I
features_in[29] I
features_in[2] I
features_in[30] I
features_in[31] I
features_in[32] I
features_in[33] I
features_in[34] I
features_in[35] I
features_in[36] I
features_in[37] I
features_in[38] I
features_in[39] I
features_in[3] I
features_in[40] I
features_in[41] I
features_in[42] I
features_in[43] I
features_in[44] I
features_in[45] I
features_in[46] I
features_in[47] I
features_in[48] I
features_in[49] I
features_in[4] I
features_in[50] I
features_in[51] I
features_in[52] I
features_in[53] I
features_in[54] I
features_in[55] I
features_in[56] I
features_in[57] I
features_in[58] I
features_in[59] I
features_in[5] I
features_in[60] I
features_in[61] I
features_in[62] I
features_in[63] I
features_in[64] I
features_in[65] I
features_in[66] I
features_in[67] I
features_in[68] I
features_in[69] I
features_in[6] I
features_in[70] I
features_in[71] I
features_in[72] I
features_in[73] I
features_in[74] I
features_in[75] I
features_in[76] I
features_in[77] I
features_in[78] I
features_in[79] I
features_in[7] I
features_in[8] I
features_in[9] I
flat_out[0] O
flat_out[10] O
flat_out[11] O
flat_out[12] O
flat_out[13] O
flat_out[14] O
flat_out[15] O
flat_out[16] O
flat_out[17] O
flat_out[18] O
flat_out[19] O
flat_out[1] O
flat_out[20] O
flat_out[21] O
flat_out[22] O
flat_out[23] O
flat_out[24] O
flat_out[25] O
flat_out[26] O
flat_out[27] O
flat_out[28] O
flat_out[29] O
flat_out[2] O
flat_out[30] O
flat_out[31] O
flat_out[32] O
flat_out[33] O
flat_out[34] O
flat_out[35] O
flat_out[36] O
flat_out[37] O
flat_out[38] O
flat_out[39] O
flat_out[3] O
flat_out[40] O
flat_out[41] O
flat_out[42] O
flat_out[43] O
flat_out[44] O
flat_out[45] O
flat_out[46] O
flat_out[47] O
flat_out[48] O
flat_out[49] O
flat_out[4] O
flat_out[50] O
flat_out[51] O
flat_out[52] O
flat_out[53] O
flat_out[54] O
flat_out[55] O
flat_out[56] O
flat_out[57] O
flat_out[58] O
flat_out[59] O
flat_out[5] O
flat_out[60] O
flat_out[61] O
flat_out[62] O
flat_out[63] O
flat_out[64] O
flat_out[65] O
flat_out[66] O
flat_out[67] O
flat_out[68] O
flat_out[69] O
flat_out[6] O
flat_out[70] O
flat_out[71] O
flat_out[72] O
flat_out[73] O
flat_out[74] O
flat_out[75] O
flat_out[76] O
flat_out[77] O
flat_out[78] O
flat_out[79] O
flat_out[7] O
flat_out[8] O
flat_out[9] O

*D_NET *1 2.3838e-05
*CONN
*P flat_out[0] O
*P features_in[0] I
*CAP
1 flat_out[0] 7.85295e-06
2 features_in[0] 7.85295e-06
3 flat_out[0] flat_out[23] 3.80446e-06
4 flat_out[0] flat_out[5] 4.32765e-06
*RES
1 features_in[0] flat_out[0] 41.1051 
*END

*D_NET *2 9.34543e-05
*CONN
*P flat_out[10] O
*P features_in[10] I
*CAP
1 flat_out[10] 3.71428e-05
2 features_in[10] 3.71428e-05
3 flat_out[10] flat_out[16] 9.43884e-06
4 flat_out[10] flat_out[27] 3.74426e-06
5 flat_out[10] flat_out[34] 3.42623e-06
6 flat_out[10] *79:9 2.55933e-06
*RES
1 features_in[10] flat_out[10] 33.7097 
*END

*D_NET *3 0.000131489
*CONN
*P flat_out[11] O
*P features_in[11] I
*CAP
1 flat_out[11] 2.89844e-05
2 features_in[11] 2.89844e-05
3 flat_out[11] flat_out[38] 3.80446e-06
4 flat_out[11] flat_out[3] 5.57636e-05
5 flat_out[11] flat_out[51] 4.70985e-06
6 flat_out[11] flat_out[60] 4.70985e-06
7 flat_out[11] *47:11 4.53227e-06
*RES
1 features_in[11] flat_out[11] 40.7153 
*END

*D_NET *4 0.000225013
*CONN
*P flat_out[12] O
*P features_in[12] I
*CAP
1 flat_out[12] 6.49278e-05
2 features_in[12] 6.49278e-05
3 flat_out[12] flat_out[13] 1.71575e-05
4 flat_out[12] flat_out[21] 6.06307e-05
5 flat_out[12] flat_out[57] 3.42623e-06
6 flat_out[12] flat_out[64] 8.86635e-06
7 flat_out[12] *12:11 1.65027e-06
8 flat_out[12] *17:9 3.42623e-06
*RES
1 features_in[12] flat_out[12] 42.8332 
*END

*D_NET *5 0.000284531
*CONN
*P flat_out[13] O
*P features_in[13] I
*CAP
1 flat_out[13] 3.02347e-05
2 features_in[13] 3.02347e-05
3 flat_out[13] flat_out[17] 9.45371e-06
4 flat_out[13] flat_out[1] 2.63446e-06
5 flat_out[13] flat_out[21] 6.16067e-05
6 flat_out[13] flat_out[2] 9.8706e-06
7 flat_out[13] flat_out[57] 1.28651e-05
8 flat_out[13] flat_out[64] 9.59725e-05
9 flat_out[13] *12:11 1.45013e-05
10 flat_out[12] flat_out[13] 1.71575e-05
*RES
1 features_in[13] flat_out[13] 44.2742 
*END

*D_NET *6 0.000325576
*CONN
*P flat_out[14] O
*P features_in[14] I
*CAP
1 flat_out[14] 8.05624e-05
2 features_in[14] 8.05624e-05
3 flat_out[14] flat_out[19] 0.000144472
4 flat_out[14] flat_out[26] 1.50418e-05
5 flat_out[14] flat_out[74] 4.9368e-06
*RES
1 features_in[14] flat_out[14] 47.5452 
*END

*D_NET *7 0.000810328
*CONN
*P flat_out[15] O
*P features_in[15] I
*CAP
1 flat_out[15] 3.13914e-05
2 features_in[15] 3.69558e-05
3 *7:13 0.000104013
4 *7:11 7.26221e-05
5 *7:9 3.69558e-05
6 flat_out[15] flat_out[25] 0
7 flat_out[15] flat_out[31] 1.60053e-05
8 flat_out[15] flat_out[62] 3.80446e-06
9 flat_out[15] *50:11 7.09752e-06
10 *7:9 *16:9 0.000175122
11 *7:13 *16:13 3.56565e-06
12 *7:13 *25:13 0.000322794
*RES
1 features_in[15] *7:9 41.0465 
2 *7:9 *7:11 11.8 
3 *7:11 *7:13 56.9802 
4 *7:13 flat_out[15] 28.4657 
*END

*D_NET *8 0.000264497
*CONN
*P flat_out[16] O
*P features_in[16] I
*CAP
1 flat_out[16] 5.8149e-05
2 features_in[16] 5.8149e-05
3 flat_out[16] flat_out[24] 0
4 flat_out[16] flat_out[27] 2.91622e-05
5 flat_out[16] flat_out[30] 6.82882e-06
6 flat_out[16] flat_out[34] 4.83377e-06
7 flat_out[16] flat_out[35] 7.26924e-07
8 flat_out[16] flat_out[37] 9.45371e-06
9 flat_out[16] flat_out[67] 8.51678e-05
10 flat_out[16] flat_out[8] 2.58714e-06
11 flat_out[16] *79:9 0
12 flat_out[10] flat_out[16] 9.43884e-06
*RES
1 features_in[16] flat_out[16] 47.6955 
*END

*D_NET *9 0.000329995
*CONN
*P flat_out[17] O
*P features_in[17] I
*CAP
1 flat_out[17] 7.04736e-05
2 features_in[17] 8.15906e-05
3 *9:5 0.000152064
4 flat_out[17] flat_out[21] 6.63428e-06
5 flat_out[17] flat_out[2] 2.35718e-06
6 flat_out[17] flat_out[73] 0
7 flat_out[17] *17:9 0
8 *9:5 flat_out[50] 7.42167e-06
9 flat_out[13] flat_out[17] 9.45371e-06
*RES
1 features_in[17] *9:5 44.3698 
2 *9:5 flat_out[17] 47.9634 
*END

*D_NET *10 0.000257094
*CONN
*P flat_out[18] O
*P features_in[18] I
*CAP
1 flat_out[18] 1.33039e-06
2 features_in[18] 4.96257e-05
3 *10:9 5.09561e-05
4 flat_out[18] flat_out[43] 2.64633e-06
5 flat_out[18] flat_out[6] 2.64633e-06
6 *10:9 *33:9 0.000149889
*RES
1 features_in[18] *10:9 40.6885 
2 *10:9 flat_out[18] 12.8822 
*END

*D_NET *11 0.000323464
*CONN
*P flat_out[19] O
*P features_in[19] I
*CAP
1 flat_out[19] 3.82952e-05
2 features_in[19] 3.82952e-05
3 flat_out[19] flat_out[26] 1.49524e-05
4 flat_out[19] flat_out[29] 6.12423e-05
5 flat_out[19] flat_out[74] 5.25901e-06
6 flat_out[19] *26:11 2.09479e-05
7 flat_out[14] flat_out[19] 0.000144472
*RES
1 features_in[19] flat_out[19] 45.4146 
*END

*D_NET *12 0.000394166
*CONN
*P flat_out[1] O
*P features_in[1] I
*CAP
1 flat_out[1] 1.08235e-05
2 features_in[1] 3.28504e-05
3 *12:11 4.36739e-05
4 flat_out[1] flat_out[55] 7.07944e-06
5 flat_out[1] flat_out[57] 3.42623e-06
6 flat_out[1] *29:17 4.56363e-06
7 *12:11 flat_out[2] 7.38661e-05
8 *12:11 flat_out[57] 2.74791e-06
9 *12:11 flat_out[64] 0.000132393
10 *12:11 *17:9 6.39551e-05
11 flat_out[12] *12:11 1.65027e-06
12 flat_out[13] flat_out[1] 2.63446e-06
13 flat_out[13] *12:11 1.45013e-05
*RES
1 features_in[1] *12:11 48.5329 
2 *12:11 flat_out[1] 6.30581 
*END

*D_NET *13 8.59198e-05
*CONN
*P flat_out[20] O
*P features_in[20] I
*CAP
1 flat_out[20] 1.58746e-05
2 features_in[20] 1.58746e-05
3 flat_out[20] flat_out[46] 4.6463e-05
4 flat_out[20] flat_out[59] 2.4512e-06
5 flat_out[20] flat_out[71] 2.4512e-06
6 flat_out[20] *71:11 2.80521e-06
*RES
1 features_in[20] flat_out[20] 33.5137 
*END

*D_NET *14 0.000176987
*CONN
*P flat_out[21] O
*P features_in[21] I
*CAP
1 flat_out[21] 1.60471e-05
2 features_in[21] 1.60471e-05
3 flat_out[21] flat_out[42] 3.60024e-06
4 flat_out[21] flat_out[64] 6.21033e-06
5 flat_out[21] flat_out[73] 6.21033e-06
6 flat_out[12] flat_out[21] 6.06307e-05
7 flat_out[13] flat_out[21] 6.16067e-05
8 flat_out[17] flat_out[21] 6.63428e-06
*RES
1 features_in[21] flat_out[21] 35.0005 
*END

*D_NET *15 0.000132139
*CONN
*P flat_out[22] O
*P features_in[22] I
*CAP
1 flat_out[22] 2.9609e-05
2 features_in[22] 2.9609e-05
3 flat_out[22] flat_out[44] 3.45544e-06
4 flat_out[22] flat_out[49] 3.96121e-06
5 flat_out[22] *50:11 5.65715e-05
6 flat_out[22] *56:9 8.93333e-06
*RES
1 features_in[22] flat_out[22] 40.7153 
*END

*D_NET *16 0.00109153
*CONN
*P flat_out[23] O
*P features_in[23] I
*CAP
1 flat_out[23] 2.83213e-05
2 features_in[23] 2.4916e-05
3 *16:13 9.058e-05
4 *16:11 6.22587e-05
5 *16:9 2.4916e-05
6 flat_out[23] flat_out[31] 0
7 flat_out[23] flat_out[36] 4.32765e-06
8 flat_out[23] flat_out[5] 0
9 flat_out[23] *77:17 0
10 *16:9 flat_out[4] 6.88159e-06
11 *16:9 flat_out[63] 1.41937e-07
12 *16:9 *18:11 0.000191024
13 *16:13 *18:13 0.000131653
14 *16:13 *25:13 0.000344014
15 flat_out[0] flat_out[23] 3.80446e-06
16 *7:9 *16:9 0.000175122
17 *7:13 *16:13 3.56565e-06
*RES
1 features_in[23] *16:9 45.4212 
2 *16:9 *16:11 11.8 
3 *16:11 *16:13 67.0087 
4 *16:13 flat_out[23] 26.7342 
*END

*D_NET *17 0.000358238
*CONN
*P flat_out[24] O
*P features_in[24] I
*CAP
1 flat_out[24] 1.40266e-05
2 features_in[24] 8.23144e-05
3 *17:9 9.63411e-05
4 flat_out[24] flat_out[55] 6.54949e-06
5 flat_out[24] *29:17 1.58133e-05
6 *17:9 flat_out[2] 7.39988e-05
7 *17:9 flat_out[55] 0
8 *17:9 *29:17 1.81266e-06
9 flat_out[12] *17:9 3.42623e-06
10 flat_out[16] flat_out[24] 0
11 flat_out[17] *17:9 0
12 *12:11 *17:9 6.39551e-05
*RES
1 features_in[24] *17:9 43.7257 
2 *17:9 flat_out[24] 20.537 
*END

*D_NET *18 0.000817828
*CONN
*P flat_out[25] O
*P features_in[25] I
*CAP
1 flat_out[25] 2.74027e-05
2 features_in[25] 5.1683e-06
3 *18:13 9.00243e-05
4 *18:11 9.42107e-05
5 *18:7 3.67575e-05
6 flat_out[25] flat_out[49] 3.80446e-06
7 flat_out[25] flat_out[62] 4.32765e-06
8 *18:7 flat_out[56] 4.9368e-06
9 *18:7 flat_out[63] 9.34612e-06
10 *18:7 *25:7 1.31164e-06
11 *18:11 *25:9 0.00021786
12 flat_out[15] flat_out[25] 0
13 *16:9 *18:11 0.000191024
14 *16:13 *18:13 0.000131653
*RES
1 features_in[25] *18:7 15.5987 
2 *18:7 *18:11 49.4602 
3 *18:11 *18:13 49.6867 
4 *18:13 flat_out[25] 25.0027 
*END

*D_NET *19 0.000138145
*CONN
*P flat_out[26] O
*P features_in[26] I
*CAP
1 flat_out[26] 3.29145e-05
2 features_in[26] 3.29145e-05
3 flat_out[26] flat_out[28] 0
4 flat_out[26] flat_out[72] 6.90053e-06
5 flat_out[26] *21:17 7.07944e-06
6 flat_out[26] *26:11 2.46218e-05
7 flat_out[26] *27:19 3.72044e-06
8 flat_out[14] flat_out[26] 1.50418e-05
9 flat_out[19] flat_out[26] 1.49524e-05
*RES
1 features_in[26] flat_out[26] 42.2939 
*END

*D_NET *20 0.000226806
*CONN
*P flat_out[27] O
*P features_in[27] I
*CAP
1 flat_out[27] 3.54514e-05
2 features_in[27] 3.54514e-05
3 flat_out[27] flat_out[34] 2.55933e-06
4 flat_out[27] flat_out[37] 0.000103596
5 flat_out[27] flat_out[67] 0
6 flat_out[27] *43:11 3.60024e-06
7 flat_out[27] *79:9 1.32412e-05
8 flat_out[10] flat_out[27] 3.74426e-06
9 flat_out[16] flat_out[27] 2.91622e-05
*RES
1 features_in[27] flat_out[27] 45.7152 
*END

*D_NET *21 0.000179985
*CONN
*P flat_out[28] O
*P features_in[28] I
*CAP
1 flat_out[28] 8.2179e-06
2 features_in[28] 2.32094e-05
3 *21:17 3.14273e-05
4 flat_out[28] flat_out[33] 1.52409e-05
5 flat_out[28] *27:19 1.19976e-05
6 *21:17 flat_out[32] 3.77577e-05
7 *21:17 flat_out[33] 9.37023e-06
8 *21:17 *26:11 0
9 *21:17 *27:19 3.56851e-05
10 flat_out[26] flat_out[28] 0
11 flat_out[26] *21:17 7.07944e-06
*RES
1 features_in[28] *21:17 38.318 
2 *21:17 flat_out[28] 18.1058 
*END

*D_NET *22 0.000170997
*CONN
*P flat_out[29] O
*P features_in[29] I
*CAP
1 flat_out[29] 2.94474e-05
2 features_in[29] 2.94474e-05
3 flat_out[29] flat_out[65] 1.36251e-05
4 flat_out[29] flat_out[72] 6.65669e-06
5 flat_out[29] flat_out[9] 1.37206e-06
6 flat_out[29] *26:11 2.9206e-05
7 flat_out[19] flat_out[29] 6.12423e-05
*RES
1 features_in[29] flat_out[29] 39.8628 
*END

*D_NET *23 0.0002674
*CONN
*P flat_out[2] O
*P features_in[2] I
*CAP
1 flat_out[2] 3.7307e-05
2 features_in[2] 3.7307e-05
3 flat_out[2] flat_out[42] 2.65674e-06
4 flat_out[2] flat_out[64] 1.269e-05
5 flat_out[2] flat_out[73] 1.73467e-05
6 flat_out[13] flat_out[2] 9.8706e-06
7 flat_out[17] flat_out[2] 2.35718e-06
8 *12:11 flat_out[2] 7.38661e-05
9 *17:9 flat_out[2] 7.39988e-05
*RES
1 features_in[2] flat_out[2] 45.8655 
*END

*D_NET *24 4.285e-05
*CONN
*P flat_out[30] O
*P features_in[30] I
*CAP
1 flat_out[30] 1.43372e-05
2 features_in[30] 1.43372e-05
3 flat_out[30] flat_out[35] 3.93234e-06
4 flat_out[30] flat_out[8] 3.41441e-06
5 flat_out[16] flat_out[30] 6.82882e-06
*RES
1 features_in[30] flat_out[30] 30.5348 
*END

*D_NET *25 0.00118049
*CONN
*P flat_out[31] O
*P features_in[31] I
*CAP
1 flat_out[31] 2.53135e-05
2 features_in[31] 8.00587e-06
3 *25:13 6.41034e-05
4 *25:11 3.879e-05
5 *25:9 5.21029e-05
6 *25:7 6.01087e-05
7 flat_out[31] flat_out[5] 9.48518e-06
8 flat_out[31] *50:11 7.09752e-06
9 *25:7 flat_out[4] 5.63714e-07
10 *25:7 flat_out[56] 9.87361e-06
11 *25:7 flat_out[63] 0
12 *25:9 flat_out[56] 3.06522e-06
13 flat_out[15] flat_out[31] 1.60053e-05
14 flat_out[23] flat_out[31] 0
15 *7:13 *25:13 0.000322794
16 *16:13 *25:13 0.000344014
17 *18:7 *25:7 1.31164e-06
18 *18:11 *25:9 0.00021786
*RES
1 features_in[31] *25:7 16.5104 
2 *25:7 *25:9 38.526 
3 *25:9 *25:11 11.8 
4 *25:11 *25:13 57.8919 
5 *25:13 flat_out[31] 27.6 
*END

*D_NET *26 0.000356041
*CONN
*P flat_out[32] O
*P features_in[32] I
*CAP
1 flat_out[32] 3.23167e-05
2 features_in[32] 7.07392e-05
3 *26:11 0.000103056
4 flat_out[32] flat_out[33] 1.07237e-05
5 flat_out[32] flat_out[53] 4.86332e-06
6 flat_out[32] flat_out[63] 0
7 flat_out[32] *27:19 2.1809e-05
8 *26:11 flat_out[9] 0
9 flat_out[19] *26:11 2.09479e-05
10 flat_out[26] *26:11 2.46218e-05
11 flat_out[29] *26:11 2.9206e-05
12 *21:17 flat_out[32] 3.77577e-05
13 *21:17 *26:11 0
*RES
1 features_in[32] *26:11 47.4115 
2 *26:11 flat_out[32] 32.3717 
*END

*D_NET *27 0.000259403
*CONN
*P flat_out[33] O
*P features_in[33] I
*CAP
1 flat_out[33] 4.15939e-05
2 features_in[33] 3.38341e-05
3 *27:19 7.54281e-05
4 flat_out[33] flat_out[63] 0
5 flat_out[26] *27:19 3.72044e-06
6 flat_out[28] flat_out[33] 1.52409e-05
7 flat_out[28] *27:19 1.19976e-05
8 flat_out[32] flat_out[33] 1.07237e-05
9 flat_out[32] *27:19 2.1809e-05
10 *21:17 flat_out[33] 9.37023e-06
11 *21:17 *27:19 3.56851e-05
*RES
1 features_in[33] *27:19 49.1867 
2 *27:19 flat_out[33] 35.509 
*END

*D_NET *28 0.000118487
*CONN
*P flat_out[34] O
*P features_in[34] I
*CAP
1 flat_out[34] 2.57571e-05
2 features_in[34] 2.57571e-05
3 flat_out[34] flat_out[66] 3.26584e-06
4 flat_out[34] flat_out[67] 5.2888e-05
5 flat_out[10] flat_out[34] 3.42623e-06
6 flat_out[16] flat_out[34] 4.83377e-06
7 flat_out[27] flat_out[34] 2.55933e-06
*RES
1 features_in[34] flat_out[34] 32.5693 
*END

*D_NET *29 0.000167368
*CONN
*P flat_out[35] O
*P features_in[35] I
*CAP
1 flat_out[35] 1.31402e-05
2 features_in[35] 4.63403e-05
3 *29:17 5.94805e-05
4 flat_out[35] flat_out[55] 6.54949e-06
5 *29:17 flat_out[55] 1.50092e-05
6 flat_out[16] flat_out[35] 7.26924e-07
7 flat_out[1] *29:17 4.56363e-06
8 flat_out[24] *29:17 1.58133e-05
9 flat_out[30] flat_out[35] 3.93234e-06
10 *17:9 *29:17 1.81266e-06
*RES
1 features_in[35] *29:17 43.5184 
2 *29:17 flat_out[35] 33.6684 
*END

*D_NET *30 2.3838e-05
*CONN
*P flat_out[36] O
*P features_in[36] I
*CAP
1 flat_out[36] 7.85295e-06
2 features_in[36] 7.85295e-06
3 flat_out[36] *77:17 3.80446e-06
4 flat_out[23] flat_out[36] 4.32765e-06
*RES
1 features_in[36] flat_out[36] 41.1051 
*END

*D_NET *31 0.00022313
*CONN
*P flat_out[37] O
*P features_in[37] I
*CAP
1 flat_out[37] 3.80561e-05
2 features_in[37] 3.80561e-05
3 flat_out[37] flat_out[66] 2.65674e-06
4 flat_out[37] flat_out[67] 6.97858e-07
5 flat_out[37] *79:9 3.06139e-05
6 flat_out[16] flat_out[37] 9.45371e-06
7 flat_out[27] flat_out[37] 0.000103596
*RES
1 features_in[37] flat_out[37] 45.8655 
*END

*D_NET *32 2.3838e-05
*CONN
*P flat_out[38] O
*P features_in[38] I
*CAP
1 flat_out[38] 7.85295e-06
2 features_in[38] 7.85295e-06
3 flat_out[38] flat_out[3] 4.32765e-06
4 flat_out[11] flat_out[38] 3.80446e-06
*RES
1 features_in[38] flat_out[38] 41.1051 
*END

*D_NET *33 0.000409504
*CONN
*P flat_out[39] O
*P features_in[39] I
*CAP
1 flat_out[39] 3.67219e-06
2 features_in[39] 4.16854e-05
3 *33:9 4.53576e-05
4 flat_out[39] flat_out[41] 2.98459e-06
5 flat_out[39] flat_out[47] 2.64633e-06
6 flat_out[39] flat_out[68] 0
7 *33:9 flat_out[43] 0.000108546
8 *33:9 flat_out[47] 2.31315e-05
9 *33:9 flat_out[69] 2.25134e-05
10 *33:9 flat_out[6] 9.07796e-06
11 *10:9 *33:9 0.000149889
*RES
1 features_in[39] *33:9 48.8477 
2 *33:9 flat_out[39] 13.7479 
*END

*D_NET *34 0.000212763
*CONN
*P flat_out[3] O
*P features_in[3] I
*CAP
1 flat_out[3] 2.17003e-05
2 features_in[3] 2.17003e-05
3 flat_out[3] flat_out[48] 7.75992e-06
4 flat_out[3] flat_out[51] 6.42101e-06
5 flat_out[3] flat_out[60] 6.42101e-06
6 flat_out[3] *47:11 8.86688e-05
7 flat_out[11] flat_out[3] 5.57636e-05
8 flat_out[38] flat_out[3] 4.32765e-06
*RES
1 features_in[3] flat_out[3] 44.2702 
*END

*D_NET *35 4.48925e-05
*CONN
*P flat_out[40] O
*P features_in[40] I
*CAP
1 flat_out[40] 1.72512e-05
2 features_in[40] 1.72512e-05
3 flat_out[40] flat_out[41] 2.64633e-06
4 flat_out[40] flat_out[68] 5.09753e-06
5 flat_out[40] *46:11 2.64633e-06
*RES
1 features_in[40] flat_out[40] 31.6903 
*END

*D_NET *36 2.05261e-05
*CONN
*P flat_out[41] O
*P features_in[41] I
*CAP
1 flat_out[41] 7.44758e-06
2 features_in[41] 7.44758e-06
3 flat_out[39] flat_out[41] 2.98459e-06
4 flat_out[40] flat_out[41] 2.64633e-06
*RES
1 features_in[41] flat_out[41] 28.0436 
*END

*D_NET *37 2.67958e-05
*CONN
*P flat_out[42] O
*P features_in[42] I
*CAP
1 flat_out[42] 1.02694e-05
2 features_in[42] 1.02694e-05
3 flat_out[21] flat_out[42] 3.60024e-06
4 flat_out[2] flat_out[42] 2.65674e-06
*RES
1 features_in[42] flat_out[42] 28.8033 
*END

*D_NET *38 0.000269881
*CONN
*P flat_out[43] O
*P features_in[43] I
*CAP
1 flat_out[43] 2.9288e-05
2 features_in[43] 2.9288e-05
3 flat_out[43] flat_out[47] 2.98459e-06
4 flat_out[43] flat_out[69] 6.71758e-05
5 flat_out[43] flat_out[6] 2.4332e-05
6 flat_out[43] flat_out[70] 2.96718e-06
7 flat_out[43] flat_out[76] 2.65242e-06
8 flat_out[43] *80:5 0
9 flat_out[18] flat_out[43] 2.64633e-06
10 *33:9 flat_out[43] 0.000108546
*RES
1 features_in[43] flat_out[43] 47.9169 
*END

*D_NET *39 2.51428e-05
*CONN
*P flat_out[44] O
*P features_in[44] I
*CAP
1 flat_out[44] 9.11597e-06
2 features_in[44] 9.11597e-06
3 flat_out[44] flat_out[77] 3.45544e-06
4 flat_out[22] flat_out[44] 3.45544e-06
*RES
1 features_in[44] flat_out[44] 41.1051 
*END

*D_NET *40 8.42852e-05
*CONN
*P flat_out[45] O
*P features_in[45] I
*CAP
1 flat_out[45] 1.93305e-05
2 features_in[45] 1.93305e-05
3 flat_out[45] flat_out[65] 1.77142e-05
4 flat_out[45] flat_out[72] 2.2651e-05
5 flat_out[45] flat_out[9] 5.25901e-06
*RES
1 features_in[45] flat_out[45] 34.9095 
*END

*D_NET *41 0.000193924
*CONN
*P flat_out[46] O
*P features_in[46] I
*CAP
1 flat_out[46] 2.343e-05
2 features_in[46] 2.343e-05
3 flat_out[46] flat_out[50] 0
4 flat_out[46] flat_out[59] 3.43227e-06
5 flat_out[46] flat_out[78] 2.98459e-06
6 flat_out[46] *46:11 9.3768e-05
7 flat_out[46] *71:11 4.16081e-07
8 flat_out[20] flat_out[46] 4.6463e-05
*RES
1 features_in[46] flat_out[46] 42.5387 
*END

*D_NET *42 5.28381e-05
*CONN
*P flat_out[47] O
*P features_in[47] I
*CAP
1 flat_out[47] 9.39151e-06
2 features_in[47] 9.39151e-06
3 flat_out[47] flat_out[6] 5.29267e-06
4 flat_out[39] flat_out[47] 2.64633e-06
5 flat_out[43] flat_out[47] 2.98459e-06
6 *33:9 flat_out[47] 2.31315e-05
*RES
1 features_in[47] flat_out[47] 29.867 
*END

*D_NET *43 0.000382754
*CONN
*P flat_out[48] O
*P features_in[48] I
*CAP
1 flat_out[48] 2.96525e-05
2 features_in[48] 3.84894e-05
3 *43:13 0.000141136
4 *43:11 0.000149973
5 flat_out[48] flat_out[60] 0
6 flat_out[48] *47:11 9.48518e-06
7 *43:11 *79:9 2.65674e-06
8 flat_out[27] *43:11 3.60024e-06
9 flat_out[3] flat_out[48] 7.75992e-06
*RES
1 features_in[48] *43:11 42.0016 
2 *43:11 *43:13 62.4503 
3 *43:13 flat_out[48] 28.4657 
*END

*D_NET *44 2.41037e-05
*CONN
*P flat_out[49] O
*P features_in[49] I
*CAP
1 flat_out[49] 8.16902e-06
2 features_in[49] 8.16902e-06
3 flat_out[22] flat_out[49] 3.96121e-06
4 flat_out[25] flat_out[49] 3.80446e-06
*RES
1 features_in[49] flat_out[49] 41.1051 
*END

*D_NET *45 0.000115498
*CONN
*P flat_out[4] O
*P features_in[4] I
*CAP
1 flat_out[4] 3.35573e-05
2 features_in[4] 3.35573e-05
3 flat_out[4] flat_out[56] 5.25901e-06
4 flat_out[4] flat_out[63] 3.56794e-05
5 *16:9 flat_out[4] 6.88159e-06
6 *25:7 flat_out[4] 5.63714e-07
*RES
1 features_in[4] flat_out[4] 36.1409 
*END

*D_NET *46 0.000195701
*CONN
*P flat_out[50] O
*P features_in[50] I
*CAP
1 flat_out[50] 4.20281e-06
2 features_in[50] 3.78492e-05
3 *46:11 4.2052e-05
4 flat_out[50] flat_out[78] 2.64633e-06
5 *46:11 flat_out[78] 5.1149e-06
6 *46:11 *71:11 0
7 flat_out[40] *46:11 2.64633e-06
8 flat_out[46] flat_out[50] 0
9 flat_out[46] *46:11 9.3768e-05
10 *9:5 flat_out[50] 7.42167e-06
*RES
1 features_in[50] *46:11 48.7499 
2 *46:11 flat_out[50] 2.81369 
*END

*D_NET *47 0.000232342
*CONN
*P flat_out[51] O
*P features_in[51] I
*CAP
1 flat_out[51] 7.1251e-06
2 features_in[51] 3.25107e-05
3 *47:11 3.96358e-05
4 *47:11 flat_out[60] 3.45436e-05
5 *47:11 flat_out[79] 4.70985e-06
6 flat_out[11] flat_out[51] 4.70985e-06
7 flat_out[11] *47:11 4.53227e-06
8 flat_out[3] flat_out[51] 6.42101e-06
9 flat_out[3] *47:11 8.86688e-05
10 flat_out[48] *47:11 9.48518e-06
*RES
1 features_in[51] *47:11 47.7923 
2 *47:11 flat_out[51] 3.67945 
*END

*D_NET *48 2.45181e-05
*CONN
*P flat_out[52] O
*P features_in[52] I
*CAP
1 flat_out[52] 8.46078e-06
2 features_in[52] 8.46078e-06
3 flat_out[52] flat_out[79] 3.63534e-06
4 flat_out[52] *77:17 3.96121e-06
*RES
1 features_in[52] flat_out[52] 41.1051 
*END

*D_NET *49 2.77252e-05
*CONN
*P flat_out[53] O
*P features_in[53] I
*CAP
1 flat_out[53] 8.96254e-06
2 features_in[53] 8.96254e-06
3 flat_out[53] flat_out[63] 4.9368e-06
4 flat_out[32] flat_out[53] 4.86332e-06
*RES
1 features_in[53] flat_out[53] 29.715 
*END

*D_NET *50 0.000275528
*CONN
*P flat_out[54] O
*P features_in[54] I
*CAP
1 flat_out[54] 4.51229e-06
2 features_in[54] 2.62499e-05
3 *50:11 3.07622e-05
4 flat_out[54] flat_out[77] 3.96121e-06
5 flat_out[54] *56:9 7.09752e-06
6 *50:11 *56:9 0.000132178
7 flat_out[15] *50:11 7.09752e-06
8 flat_out[22] *50:11 5.65715e-05
9 flat_out[31] *50:11 7.09752e-06
*RES
1 features_in[54] *50:11 48.7499 
2 *50:11 flat_out[54] 2.81369 
*END

*D_NET *51 7.57739e-05
*CONN
*P flat_out[55] O
*P features_in[55] I
*CAP
1 flat_out[55] 2.02932e-05
2 features_in[55] 2.02932e-05
3 flat_out[1] flat_out[55] 7.07944e-06
4 flat_out[24] flat_out[55] 6.54949e-06
5 flat_out[35] flat_out[55] 6.54949e-06
6 *17:9 flat_out[55] 0
7 *29:17 flat_out[55] 1.50092e-05
*RES
1 features_in[55] flat_out[55] 32.7196 
*END

*D_NET *52 4.99537e-05
*CONN
*P flat_out[56] O
*P features_in[56] I
*CAP
1 flat_out[56] 1.34095e-05
2 features_in[56] 1.34095e-05
3 flat_out[4] flat_out[56] 5.25901e-06
4 *18:7 flat_out[56] 4.9368e-06
5 *25:7 flat_out[56] 9.87361e-06
6 *25:9 flat_out[56] 3.06522e-06
*RES
1 features_in[56] flat_out[56] 31.4465 
*END

*D_NET *53 4.66168e-05
*CONN
*P flat_out[57] O
*P features_in[57] I
*CAP
1 flat_out[57] 1.20757e-05
2 features_in[57] 1.20757e-05
3 flat_out[12] flat_out[57] 3.42623e-06
4 flat_out[13] flat_out[57] 1.28651e-05
5 flat_out[1] flat_out[57] 3.42623e-06
6 *12:11 flat_out[57] 2.74791e-06
*RES
1 features_in[57] flat_out[57] 29.148 
*END

*D_NET *54 4.27683e-05
*CONN
*P flat_out[58] O
*P features_in[58] I
*CAP
1 flat_out[58] 1.42398e-05
2 features_in[58] 1.42398e-05
3 flat_out[58] flat_out[66] 3.41441e-06
4 flat_out[58] flat_out[67] 6.82882e-06
5 flat_out[58] flat_out[8] 4.04539e-06
*RES
1 features_in[58] flat_out[58] 30.5348 
*END

*D_NET *55 4.57307e-05
*CONN
*P flat_out[59] O
*P features_in[59] I
*CAP
1 flat_out[59] 1.70382e-05
2 features_in[59] 1.70382e-05
3 flat_out[59] flat_out[71] 2.65242e-06
4 flat_out[59] *71:11 3.11836e-06
5 flat_out[20] flat_out[59] 2.4512e-06
6 flat_out[46] flat_out[59] 3.43227e-06
*RES
1 features_in[59] flat_out[59] 46.4629 
*END

*D_NET *56 0.000264217
*CONN
*P flat_out[5] O
*P features_in[5] I
*CAP
1 flat_out[5] 4.99737e-06
2 features_in[5] 4.60999e-05
3 *56:9 5.10973e-05
4 flat_out[0] flat_out[5] 4.32765e-06
5 flat_out[22] *56:9 8.93333e-06
6 flat_out[23] flat_out[5] 0
7 flat_out[31] flat_out[5] 9.48518e-06
8 flat_out[54] *56:9 7.09752e-06
9 *50:11 *56:9 0.000132178
*RES
1 features_in[5] *56:9 43.2858 
2 *56:9 flat_out[5] 15.4794 
*END

*D_NET *57 0.000104243
*CONN
*P flat_out[60] O
*P features_in[60] I
*CAP
1 flat_out[60] 2.55758e-05
2 features_in[60] 2.55758e-05
3 flat_out[60] flat_out[61] 7.41665e-06
4 flat_out[11] flat_out[60] 4.70985e-06
5 flat_out[3] flat_out[60] 6.42101e-06
6 flat_out[48] flat_out[60] 0
7 *47:11 flat_out[60] 3.45436e-05
*RES
1 features_in[60] flat_out[60] 38.6163 
*END

*D_NET *58 2.47818e-05
*CONN
*P flat_out[61] O
*P features_in[61] I
*CAP
1 flat_out[61] 8.68255e-06
2 features_in[61] 8.68255e-06
3 flat_out[60] flat_out[61] 7.41665e-06
*RES
1 features_in[61] flat_out[61] 41.1051 
*END

*D_NET *59 2.3838e-05
*CONN
*P flat_out[62] O
*P features_in[62] I
*CAP
1 flat_out[62] 7.85295e-06
2 features_in[62] 7.85295e-06
3 flat_out[15] flat_out[62] 3.80446e-06
4 flat_out[25] flat_out[62] 4.32765e-06
*RES
1 features_in[62] flat_out[62] 41.1051 
*END

*D_NET *60 0.000136116
*CONN
*P flat_out[63] O
*P features_in[63] I
*CAP
1 flat_out[63] 4.3006e-05
2 features_in[63] 4.3006e-05
3 flat_out[32] flat_out[63] 0
4 flat_out[33] flat_out[63] 0
5 flat_out[4] flat_out[63] 3.56794e-05
6 flat_out[53] flat_out[63] 4.9368e-06
7 *16:9 flat_out[63] 1.41937e-07
8 *18:7 flat_out[63] 9.34612e-06
9 *25:7 flat_out[63] 0
*RES
1 features_in[63] flat_out[63] 41.0032 
*END

*D_NET *61 0.000323104
*CONN
*P flat_out[64] O
*P features_in[64] I
*CAP
1 flat_out[64] 3.27289e-05
2 features_in[64] 3.27289e-05
3 flat_out[64] flat_out[73] 1.514e-06
4 flat_out[12] flat_out[64] 8.86635e-06
5 flat_out[13] flat_out[64] 9.59725e-05
6 flat_out[21] flat_out[64] 6.21033e-06
7 flat_out[2] flat_out[64] 1.269e-05
8 *12:11 flat_out[64] 0.000132393
*RES
1 features_in[64] flat_out[64] 45.5649 
*END

*D_NET *62 7.86136e-05
*CONN
*P flat_out[65] O
*P features_in[65] I
*CAP
1 flat_out[65] 1.99819e-05
2 features_in[65] 1.99819e-05
3 flat_out[65] flat_out[9] 7.31048e-06
4 flat_out[29] flat_out[65] 1.36251e-05
5 flat_out[45] flat_out[65] 1.77142e-05
*RES
1 features_in[65] flat_out[65] 35.0014 
*END

*D_NET *63 6.2163e-05
*CONN
*P flat_out[66] O
*P features_in[66] I
*CAP
1 flat_out[66] 2.50846e-05
2 features_in[66] 2.50846e-05
3 flat_out[66] flat_out[67] 2.65674e-06
4 flat_out[34] flat_out[66] 3.26584e-06
5 flat_out[37] flat_out[66] 2.65674e-06
6 flat_out[58] flat_out[66] 3.41441e-06
*RES
1 features_in[66] flat_out[66] 33.9978 
*END

*D_NET *64 0.000205831
*CONN
*P flat_out[67] O
*P features_in[67] I
*CAP
1 flat_out[67] 2.79237e-05
2 features_in[67] 2.79237e-05
3 flat_out[67] flat_out[8] 1.74396e-06
4 flat_out[16] flat_out[67] 8.51678e-05
5 flat_out[27] flat_out[67] 0
6 flat_out[34] flat_out[67] 5.2888e-05
7 flat_out[37] flat_out[67] 6.97858e-07
8 flat_out[58] flat_out[67] 6.82882e-06
9 flat_out[66] flat_out[67] 2.65674e-06
*RES
1 features_in[67] flat_out[67] 37.2813 
*END

*D_NET *65 2.17042e-05
*CONN
*P flat_out[68] O
*P features_in[68] I
*CAP
1 flat_out[68] 8.30331e-06
2 features_in[68] 8.30331e-06
3 flat_out[39] flat_out[68] 0
4 flat_out[40] flat_out[68] 5.09753e-06
*RES
1 features_in[68] flat_out[68] 40.4558 
*END

*D_NET *66 0.000189337
*CONN
*P flat_out[69] O
*P features_in[69] I
*CAP
1 flat_out[69] 4.25336e-05
2 features_in[69] 4.25336e-05
3 flat_out[69] flat_out[75] 2.65242e-06
4 flat_out[69] flat_out[7] 3.45733e-06
5 flat_out[69] *80:5 8.47043e-06
6 flat_out[43] flat_out[69] 6.71758e-05
7 *33:9 flat_out[69] 2.25134e-05
*RES
1 features_in[69] flat_out[69] 49.6484 
*END

*D_NET *67 0.000102461
*CONN
*P flat_out[6] O
*P features_in[6] I
*CAP
1 flat_out[6] 2.92298e-05
2 features_in[6] 2.92298e-05
3 flat_out[6] flat_out[75] 2.65242e-06
4 flat_out[18] flat_out[6] 2.64633e-06
5 flat_out[43] flat_out[6] 2.4332e-05
6 flat_out[47] flat_out[6] 5.29267e-06
7 *33:9 flat_out[6] 9.07796e-06
*RES
1 features_in[6] flat_out[6] 38.7082 
*END

*D_NET *68 2.21004e-05
*CONN
*P flat_out[70] O
*P features_in[70] I
*CAP
1 flat_out[70] 8.24038e-06
2 features_in[70] 8.24038e-06
3 flat_out[70] flat_out[7] 2.65242e-06
4 flat_out[43] flat_out[70] 2.96718e-06
*RES
1 features_in[70] flat_out[70] 40.4558 
*END

*D_NET *69 2.22456e-05
*CONN
*P flat_out[71] O
*P features_in[71] I
*CAP
1 flat_out[71] 8.57099e-06
2 features_in[71] 8.57099e-06
3 flat_out[20] flat_out[71] 2.4512e-06
4 flat_out[59] flat_out[71] 2.65242e-06
*RES
1 features_in[71] flat_out[71] 40.4558 
*END

*D_NET *70 6.58519e-05
*CONN
*P flat_out[72] O
*P features_in[72] I
*CAP
1 flat_out[72] 1.48218e-05
2 features_in[72] 1.48218e-05
3 flat_out[26] flat_out[72] 6.90053e-06
4 flat_out[29] flat_out[72] 6.65669e-06
5 flat_out[45] flat_out[72] 2.2651e-05
*RES
1 features_in[72] flat_out[72] 33.2699 
*END

*D_NET *71 0.000462376
*CONN
*P flat_out[73] O
*P features_in[73] I
*CAP
1 flat_out[73] 9.72602e-05
2 features_in[73] 1.66685e-05
3 *71:15 9.72602e-05
4 *71:13 0.000101554
5 *71:11 0.000118222
6 flat_out[17] flat_out[73] 0
7 flat_out[20] *71:11 2.80521e-06
8 flat_out[21] flat_out[73] 6.21033e-06
9 flat_out[2] flat_out[73] 1.73467e-05
10 flat_out[46] *71:11 4.16081e-07
11 flat_out[59] *71:11 3.11836e-06
12 flat_out[64] flat_out[73] 1.514e-06
13 *46:11 *71:11 0
*RES
1 features_in[73] *71:11 43.1071 
2 *71:11 *71:13 48.3198 
3 *71:13 *71:15 11.8 
4 *71:15 flat_out[73] 52.5737 
*END

*D_NET *72 2.74393e-05
*CONN
*P flat_out[74] O
*P features_in[74] I
*CAP
1 flat_out[74] 8.62175e-06
2 features_in[74] 8.62175e-06
3 flat_out[14] flat_out[74] 4.9368e-06
4 flat_out[19] flat_out[74] 5.25901e-06
*RES
1 features_in[74] flat_out[74] 29.715 
*END

*D_NET *73 5.3644e-05
*CONN
*P flat_out[75] O
*P features_in[75] I
*CAP
1 flat_out[75] 1.59923e-05
2 features_in[75] 1.59923e-05
3 flat_out[75] flat_out[7] 1.63546e-05
4 flat_out[69] flat_out[75] 2.65242e-06
5 flat_out[6] flat_out[75] 2.65242e-06
*RES
1 features_in[75] flat_out[75] 46.4629 
*END

*D_NET *74 2.21004e-05
*CONN
*P flat_out[76] O
*P features_in[76] I
*CAP
1 flat_out[76] 8.24038e-06
2 features_in[76] 8.24038e-06
3 flat_out[76] *80:5 2.96718e-06
4 flat_out[43] flat_out[76] 2.65242e-06
*RES
1 features_in[76] flat_out[76] 40.4558 
*END

*D_NET *75 2.47818e-05
*CONN
*P flat_out[77] O
*P features_in[77] I
*CAP
1 flat_out[77] 8.68255e-06
2 features_in[77] 8.68255e-06
3 flat_out[44] flat_out[77] 3.45544e-06
4 flat_out[54] flat_out[77] 3.96121e-06
*RES
1 features_in[77] flat_out[77] 41.1051 
*END

*D_NET *76 2.31086e-05
*CONN
*P flat_out[78] O
*P features_in[78] I
*CAP
1 flat_out[78] 6.18141e-06
2 features_in[78] 6.18141e-06
3 flat_out[46] flat_out[78] 2.98459e-06
4 flat_out[50] flat_out[78] 2.64633e-06
5 *46:11 flat_out[78] 5.1149e-06
*RES
1 features_in[78] flat_out[78] 28.0436 
*END

*D_NET *77 9.1274e-05
*CONN
*P flat_out[79] O
*P features_in[79] I
*CAP
1 flat_out[79] 1.40457e-05
2 features_in[79] 2.35359e-05
3 *77:17 3.75815e-05
4 flat_out[23] *77:17 0
5 flat_out[36] *77:17 3.80446e-06
6 flat_out[52] flat_out[79] 3.63534e-06
7 flat_out[52] *77:17 3.96121e-06
8 *47:11 flat_out[79] 4.70985e-06
*RES
1 features_in[79] *77:17 44.1107 
2 *77:17 flat_out[79] 40.464 
*END

*D_NET *78 5.17889e-05
*CONN
*P flat_out[7] O
*P features_in[7] I
*CAP
1 flat_out[7] 1.46623e-05
2 features_in[7] 1.46623e-05
3 flat_out[69] flat_out[7] 3.45733e-06
4 flat_out[70] flat_out[7] 2.65242e-06
5 flat_out[75] flat_out[7] 1.63546e-05
*RES
1 features_in[7] flat_out[7] 44.7579 
*END

*D_NET *79 0.00026506
*CONN
*P flat_out[8] O
*P features_in[8] I
*CAP
1 flat_out[8] 1.90752e-05
2 features_in[8] 8.30238e-05
3 *79:9 0.000102099
4 flat_out[10] *79:9 2.55933e-06
5 flat_out[16] flat_out[8] 2.58714e-06
6 flat_out[16] *79:9 0
7 flat_out[27] *79:9 1.32412e-05
8 flat_out[30] flat_out[8] 3.41441e-06
9 flat_out[37] *79:9 3.06139e-05
10 flat_out[58] flat_out[8] 4.04539e-06
11 flat_out[67] flat_out[8] 1.74396e-06
12 *43:11 *79:9 2.65674e-06
*RES
1 features_in[8] *79:9 40.3796 
2 *79:9 flat_out[8] 21.7525 
*END

*D_NET *80 0.000388779
*CONN
*P flat_out[9] O
*P features_in[9] I
*CAP
1 flat_out[9] 7.89674e-05
2 features_in[9] 9.38004e-05
3 *80:15 8.78993e-05
4 *80:5 0.000102732
5 flat_out[29] flat_out[9] 1.37206e-06
6 flat_out[43] *80:5 0
7 flat_out[45] flat_out[9] 5.25901e-06
8 flat_out[65] flat_out[9] 7.31048e-06
9 flat_out[69] *80:5 8.47043e-06
10 flat_out[76] *80:5 2.96718e-06
11 *26:11 flat_out[9] 0
*RES
1 features_in[9] *80:5 47.8328 
2 *80:5 *80:15 39.8436 
3 *80:15 flat_out[9] 42.0894 
*END
