*SPEF "ieee 1481-1999"
*DESIGN "MaxPooling"
*DATE "17:02:39 Monday September 21, 2026"
*VENDOR "The OpenROAD Project"
*PROGRAM "OpenROAD"
*VERSION "26Q3-2056-g41a28926b9"
*DESIGN_FLOW "NAME_SCOPE LOCAL" "PIN_CAP NONE"
*DIVIDER /
*DELIMITER :
*BUS_DELIMITER []
*T_UNIT 1 NS
*C_UNIT 1 PF
*R_UNIT 1 OHM
*L_UNIT 1 HENRY

*NAME_MAP
*1 _0000_
*2 _0001_
*3 _0002_
*4 _0003_
*5 _0004_
*6 _0005_
*7 _0006_
*8 _0007_
*9 _0008_
*10 _0009_
*11 _0010_
*12 _0011_
*13 _0012_
*14 _0013_
*15 _0014_
*16 _0015_
*17 _0016_
*18 _0017_
*19 _0018_
*20 _0019_
*21 _0020_
*22 _0021_
*23 _0022_
*24 _0023_
*25 _0024_
*26 _0025_
*27 _0026_
*28 _0027_
*29 _0028_
*30 _0029_
*31 _0030_
*32 _0031_
*33 _0032_
*34 _0033_
*35 _0034_
*36 _0035_
*37 _0036_
*38 _0037_
*39 _0038_
*40 _0039_
*41 _0040_
*42 _0041_
*43 _0042_
*44 _0043_
*45 _0044_
*46 _0045_
*47 _0046_
*48 _0047_
*49 _0048_
*50 _0049_
*51 _0050_
*52 _0051_
*53 _0052_
*54 _0053_
*55 _0054_
*56 _0055_
*57 _0056_
*58 _0057_
*59 _0058_
*60 _0059_
*61 _0060_
*62 _0061_
*63 _0062_
*64 _0063_
*65 _0064_
*66 _0065_
*67 _0066_
*68 _0067_
*69 _0068_
*70 _0069_
*71 _0070_
*72 _0071_
*73 _0072_
*74 _0073_
*75 _0074_
*76 _0075_
*77 _0076_
*78 _0077_
*79 _0078_
*80 _0079_
*81 _0080_
*82 _0081_
*83 _0082_
*84 _0083_
*85 _0084_
*86 _0085_
*87 _0086_
*88 _0087_
*89 _0088_
*90 _0089_
*91 _0090_
*92 _0091_
*93 _0092_
*94 _0093_
*95 _0094_
*96 _0095_
*97 _0096_
*98 _0097_
*99 _0098_
*100 _0099_
*101 _0100_
*102 _0101_
*103 _0102_
*104 _0103_
*105 _0104_
*106 _0105_
*107 _0106_
*108 _0107_
*109 _0108_
*110 _0109_
*111 _0110_
*112 _0111_
*113 _0112_
*114 _0113_
*115 _0114_
*116 _0115_
*117 _0116_
*118 _0117_
*119 _0118_
*120 _0119_
*121 _0120_
*122 _0121_
*123 _0122_
*124 _0123_
*125 _0124_
*126 _0125_
*127 _0126_
*128 _0127_
*129 _0128_
*130 _0129_
*131 _0130_
*132 _0131_
*133 _0132_
*134 _0133_
*135 _0134_
*136 _0135_
*137 _0136_
*138 _0137_
*139 _0138_
*140 _0139_
*141 _0140_
*142 _0141_
*143 _0142_
*144 _0143_
*145 _0144_
*146 _0145_
*147 _0146_
*148 _0147_
*149 _0148_
*150 _0149_
*151 _0150_
*152 _0151_
*153 _0152_
*154 _0153_
*155 _0154_
*156 _0155_
*157 _0156_
*158 _0157_
*159 _0158_
*160 _0159_
*161 _0160_
*162 _0161_
*163 _0162_
*164 _0163_
*165 _0164_
*166 _0165_
*167 _0166_
*168 _0167_
*169 _0168_
*170 _0169_
*171 _0170_
*172 _0171_
*173 _0172_
*174 _0173_
*175 _0174_
*176 _0175_
*177 _0176_
*178 _0177_
*179 _0178_
*180 _0179_
*181 _0180_
*182 _0181_
*183 _0182_
*184 _0183_
*185 _0184_
*186 _0185_
*187 _0186_
*188 _0187_
*189 _0188_
*190 _0189_
*191 _0190_
*192 _0191_
*193 _0192_
*194 _0193_
*195 _0194_
*196 _0195_
*197 _0196_
*198 _0197_
*199 _0198_
*200 _0199_
*201 _0200_
*202 _0201_
*203 _0202_
*204 _0203_
*205 _0204_
*206 _0205_
*207 _0206_
*208 _0207_
*209 _0208_
*210 _0209_
*211 _0210_
*212 _0211_
*213 _0212_
*214 _0213_
*215 _0214_
*216 _0215_
*217 _0216_
*218 _0217_
*219 _0218_
*220 _0219_
*221 _0220_
*222 _0221_
*223 _0222_
*224 _0223_
*225 _0224_
*226 _0225_
*227 _0226_
*228 _0227_
*229 _0228_
*230 _0229_
*231 _0230_
*232 _0231_
*233 _0232_
*234 _0233_
*235 _0234_
*236 _0235_
*237 _0236_
*238 _0237_
*239 _0238_
*240 _0239_
*241 _0240_
*242 _0241_
*243 _0242_
*244 _0243_
*245 _0244_
*246 _0245_
*247 _0246_
*248 _0247_
*249 _0248_
*250 _0249_
*251 _0250_
*252 _0251_
*253 _0252_
*254 _0253_
*255 _0254_
*256 _0255_
*257 _0256_
*258 _0257_
*259 _0258_
*260 _0259_
*261 _0260_
*262 _0261_
*263 _0262_
*264 _0263_
*265 _0264_
*266 _0265_
*267 _0266_
*268 _0267_
*269 _0268_
*270 _0269_
*271 _0270_
*272 _0271_
*273 _0272_
*274 _0273_
*275 _0274_
*276 _0275_
*277 _0276_
*278 _0277_
*279 _0278_
*280 _0279_
*281 _0280_
*282 _0281_
*283 _0282_
*284 _0283_
*285 _0284_
*286 _0285_
*287 _0286_
*288 _0287_
*289 _0288_
*290 _0289_
*291 _0290_
*292 _0291_
*293 _0292_
*294 _0293_
*295 _0294_
*296 _0295_
*297 _0296_
*298 _0297_
*299 _0298_
*300 _0299_
*301 _0300_
*302 _0301_
*303 _0302_
*304 _0303_
*305 _0304_
*306 _0305_
*307 _0306_
*308 _0307_
*309 _0308_
*310 _0309_
*311 _0310_
*312 _0311_
*313 _0312_
*314 _0313_
*315 _0314_
*316 _0315_
*317 _0316_
*318 _0317_
*319 _0318_
*320 _0319_
*321 _0320_
*322 _0321_
*323 _0322_
*324 _0323_
*325 _0324_
*326 _0325_
*327 _0326_
*328 _0327_
*329 _0328_
*330 _0329_
*331 _0330_
*332 _0331_
*333 _0332_
*334 _0333_
*335 _0334_
*336 _0335_
*337 _0336_
*338 _0337_
*339 _0338_
*340 _0339_
*341 _0340_
*342 _0341_
*343 _0342_
*344 _0343_
*345 _0344_
*346 _0345_
*347 _0346_
*348 _0347_
*349 _0348_
*350 _0349_
*351 _0350_
*352 _0351_
*353 _0352_
*354 _0353_
*355 _0354_
*356 _0355_
*357 _0356_
*358 _0357_
*359 _0358_
*360 _0359_
*361 _0360_
*362 _0361_
*363 _0362_
*364 _0363_
*365 _0364_
*366 _0365_
*367 _0366_
*368 _0367_
*369 _0368_
*370 _0369_
*371 _0370_
*372 _0371_
*373 _0372_
*374 _0373_
*375 _0374_
*376 _0375_
*377 _0376_
*378 _0377_
*379 _0378_
*380 _0379_
*381 _0380_
*382 _0381_
*383 _0382_
*384 _0383_
*385 _0384_
*386 _0385_
*387 _0386_
*388 _0387_
*389 _0388_
*390 _0389_
*391 _0390_
*392 _0391_
*393 _0392_
*394 _0393_
*395 _0394_
*396 _0395_
*397 _0396_
*398 _0397_
*399 _0398_
*400 _0399_
*401 _0400_
*402 _0401_
*403 _0402_
*404 _0403_
*405 _0404_
*406 _0405_
*407 _0406_
*408 _0407_
*409 _0408_
*410 _0409_
*411 _0410_
*412 _0411_
*413 _0412_
*414 _0413_
*415 _0414_
*416 _0415_
*417 _0416_
*418 _0417_
*419 _0418_
*420 _0419_
*421 _0420_
*422 _0421_
*423 _0422_
*424 _0423_
*425 _0424_
*426 _0425_
*427 _0426_
*428 _0427_
*429 _0428_
*430 _0429_
*431 _0430_
*432 _0431_
*433 _0432_
*434 _0433_
*436 _0435_
*437 _0436_
*438 _0437_
*439 _0438_
*440 _0439_
*441 _0440_
*442 _0441_
*443 _0442_
*444 _0443_
*445 _0444_
*446 _0445_
*447 _0446_
*448 _0447_
*449 _0448_
*450 _0449_
*451 _0450_
*452 _0451_
*453 _0452_
*454 _0453_
*455 _0454_
*456 _0455_
*457 _0456_
*458 _0457_
*459 _0458_
*462 _0461_
*463 _0462_
*464 _0463_
*465 _0464_
*466 _0465_
*467 _0466_
*468 _0467_
*469 _0468_
*470 _0469_
*471 _0470_
*472 _0471_
*473 _0472_
*474 _0473_
*475 _0474_
*476 _0475_
*477 _0476_
*478 _0477_
*479 _0478_
*480 _0479_
*481 _0480_
*482 _0481_
*483 _0482_
*484 _0483_
*485 _0484_
*486 _0485_
*487 _0486_
*488 _0487_
*489 _0488_
*490 _0489_
*491 _0490_
*492 _0491_
*493 _0492_
*494 _0493_
*495 _0494_
*496 _0495_
*497 _0496_
*498 _0497_
*499 _0498_
*500 _0499_
*501 _0500_
*502 _0501_
*503 _0502_
*504 _0503_
*505 _0504_
*506 _0505_
*507 _0506_
*509 _0508_
*510 _0509_
*511 _0510_
*512 _0511_
*513 _0512_
*514 _0513_
*515 _0514_
*516 _0515_
*517 _0516_
*518 _0517_
*519 _0518_
*520 _0519_
*521 _0520_
*522 _0521_
*523 _0522_
*524 _0523_
*525 _0524_
*526 _0525_
*527 _0526_
*528 _0527_
*529 _0528_
*532 _0531_
*533 _0532_
*534 _0533_
*535 _0534_
*536 _0535_
*537 _0536_
*538 _0537_
*539 _0538_
*540 _0539_
*541 _0540_
*542 _0541_
*543 _0542_
*544 _0543_
*545 _0544_
*546 _0545_
*547 _0546_
*548 _0547_
*549 _0548_
*550 _0549_
*551 _0550_
*552 _0551_
*553 _0552_
*554 _0553_
*555 _0554_
*556 _0555_
*557 _0556_
*558 _0557_
*559 _0558_
*560 _0559_
*561 _0560_
*562 _0561_
*563 _0562_
*564 _0563_
*565 _0564_
*566 _0565_
*567 _0566_
*568 _0567_
*569 _0568_
*570 _0569_
*571 _0570_
*572 _0571_
*573 _0572_
*574 _0573_
*575 _0574_
*576 _0575_
*577 _0576_
*578 _0577_
*579 _0578_
*580 _0579_
*581 _0580_
*582 _0581_
*583 _0582_
*584 _0583_
*585 _0584_
*586 _0585_
*587 _0586_
*588 _0587_
*589 _0588_
*590 _0589_
*591 _0590_
*592 _0591_
*593 _0592_
*594 _0593_
*595 _0594_
*596 _0595_
*597 _0596_
*598 _0597_
*599 _0598_
*600 _0599_
*601 _0600_
*602 _0601_
*603 _0602_
*604 _0603_
*605 _0604_
*606 _0605_
*607 _0606_
*608 _0607_
*609 _0608_
*610 _0609_
*611 _0610_
*612 _0611_
*615 _0614_
*616 _0615_
*617 _0616_
*618 _0617_
*619 _0618_
*620 _0619_
*621 _0620_
*622 _0621_
*623 _0622_
*624 _0623_
*625 _0624_
*626 _0625_
*627 _0626_
*628 _0627_
*629 _0628_
*630 _0629_
*631 _0630_
*632 _0631_
*633 _0632_
*634 _0633_
*635 _0634_
*636 _0635_
*637 _0636_
*638 _0637_
*639 _0638_
*640 _0639_
*641 _0640_
*642 _0641_
*643 _0642_
*644 _0643_
*645 _0644_
*646 _0645_
*647 _0646_
*648 _0647_
*649 _0648_
*650 _0649_
*651 _0650_
*652 _0651_
*653 _0652_
*654 _0653_
*655 _0654_
*656 _0655_
*657 _0656_
*658 _0657_
*659 _0658_
*660 _0659_
*661 _0660_
*662 _0661_
*663 _0662_
*664 _0663_
*665 _0664_
*666 _0665_
*667 _0666_
*668 _0667_
*669 _0668_
*670 _0669_
*671 _0670_
*672 _0671_
*673 _0672_
*674 _0673_
*675 _0674_
*676 _0675_
*677 _0676_
*614 imagem_in[0]
*613 imagem_in[100]
*531 imagem_in[101]
*530 imagem_in[102]
*508 imagem_in[103]
*461 imagem_in[104]
*460 imagem_in[105]
*435 imagem_in[106]
*840 imagem_in[107]
*841 imagem_in[108]
*842 imagem_in[109]
*843 imagem_in[10]
*844 imagem_in[110]
*845 imagem_in[111]
*846 imagem_in[112]
*847 imagem_in[113]
*848 imagem_in[114]
*849 imagem_in[115]
*850 imagem_in[116]
*851 imagem_in[117]
*852 imagem_in[118]
*853 imagem_in[119]
*854 imagem_in[11]
*855 imagem_in[120]
*856 imagem_in[121]
*857 imagem_in[122]
*858 imagem_in[123]
*859 imagem_in[124]
*860 imagem_in[125]
*861 imagem_in[126]
*862 imagem_in[127]
*863 imagem_in[12]
*864 imagem_in[13]
*865 imagem_in[14]
*866 imagem_in[15]
*867 imagem_in[16]
*868 imagem_in[17]
*869 imagem_in[18]
*870 imagem_in[19]
*871 imagem_in[1]
*872 imagem_in[20]
*873 imagem_in[21]
*874 imagem_in[22]
*875 imagem_in[23]
*876 imagem_in[24]
*877 imagem_in[25]
*878 imagem_in[26]
*879 imagem_in[27]
*880 imagem_in[28]
*881 imagem_in[29]
*882 imagem_in[2]
*883 imagem_in[30]
*884 imagem_in[31]
*885 imagem_in[32]
*886 imagem_in[33]
*887 imagem_in[34]
*888 imagem_in[35]
*889 imagem_in[36]
*890 imagem_in[37]
*891 imagem_in[38]
*892 imagem_in[39]
*893 imagem_in[3]
*894 imagem_in[40]
*895 imagem_in[41]
*896 imagem_in[42]
*897 imagem_in[43]
*898 imagem_in[44]
*899 imagem_in[45]
*900 imagem_in[46]
*901 imagem_in[47]
*902 imagem_in[48]
*903 imagem_in[49]
*904 imagem_in[4]
*905 imagem_in[50]
*906 imagem_in[51]
*907 imagem_in[52]
*908 imagem_in[53]
*909 imagem_in[54]
*910 imagem_in[55]
*911 imagem_in[56]
*912 imagem_in[57]
*913 imagem_in[58]
*914 imagem_in[59]
*915 imagem_in[5]
*916 imagem_in[60]
*917 imagem_in[61]
*918 imagem_in[62]
*919 imagem_in[63]
*920 imagem_in[64]
*921 imagem_in[65]
*922 imagem_in[66]
*923 imagem_in[67]
*924 imagem_in[68]
*925 imagem_in[69]
*926 imagem_in[6]
*927 imagem_in[70]
*928 imagem_in[71]
*929 imagem_in[72]
*930 imagem_in[73]
*931 imagem_in[74]
*932 imagem_in[75]
*933 imagem_in[76]
*934 imagem_in[77]
*935 imagem_in[78]
*936 imagem_in[79]
*937 imagem_in[7]
*938 imagem_in[80]
*939 imagem_in[81]
*940 imagem_in[82]
*941 imagem_in[83]
*942 imagem_in[84]
*943 imagem_in[85]
*944 imagem_in[86]
*945 imagem_in[87]
*946 imagem_in[88]
*947 imagem_in[89]
*948 imagem_in[8]
*949 imagem_in[90]
*950 imagem_in[91]
*951 imagem_in[92]
*952 imagem_in[93]
*953 imagem_in[94]
*954 imagem_in[95]
*955 imagem_in[96]
*956 imagem_in[97]
*957 imagem_in[98]
*958 imagem_in[99]
*959 imagem_in[9]
*960 imagem_out[0]
*961 imagem_out[10]
*962 imagem_out[11]
*963 imagem_out[12]
*964 imagem_out[13]
*965 imagem_out[14]
*966 imagem_out[15]
*967 imagem_out[16]
*968 imagem_out[17]
*969 imagem_out[18]
*970 imagem_out[19]
*971 imagem_out[1]
*972 imagem_out[20]
*973 imagem_out[21]
*974 imagem_out[22]
*975 imagem_out[23]
*976 imagem_out[24]
*977 imagem_out[25]
*978 imagem_out[26]
*979 imagem_out[27]
*980 imagem_out[28]
*981 imagem_out[29]
*982 imagem_out[2]
*983 imagem_out[30]
*984 imagem_out[31]
*985 imagem_out[3]
*986 imagem_out[4]
*987 imagem_out[5]
*988 imagem_out[6]
*989 imagem_out[7]
*990 imagem_out[8]
*991 imagem_out[9]
*678 net1
*687 net10
*777 net100
*778 net101
*779 net102
*780 net103
*781 net104
*782 net105
*783 net106
*784 net107
*785 net108
*786 net109
*688 net11
*787 net110
*788 net111
*789 net112
*790 net113
*791 net114
*792 net115
*793 net116
*794 net117
*795 net118
*796 net119
*689 net12
*797 net120
*798 net121
*799 net122
*800 net123
*801 net124
*802 net125
*803 net126
*804 net127
*805 net128
*806 net129
*690 net13
*807 net130
*808 net131
*809 net132
*810 net133
*811 net134
*812 net135
*813 net136
*814 net137
*815 net138
*816 net139
*691 net14
*817 net140
*818 net141
*819 net142
*820 net143
*821 net144
*822 net145
*823 net146
*824 net147
*825 net148
*826 net149
*692 net15
*827 net150
*828 net151
*829 net152
*830 net153
*831 net154
*832 net155
*833 net156
*834 net157
*835 net158
*836 net159
*693 net16
*837 net160
*694 net17
*695 net18
*696 net19
*679 net2
*697 net20
*698 net21
*699 net22
*700 net23
*701 net24
*1079 net248
*1080 net249
*702 net25
*1081 net250
*992 net251
*993 net252
*994 net253
*995 net254
*1082 net255
*996 net256
*997 net257
*1083 net258
*998 net259
*703 net26
*1000 net260
*1001 net261
*1002 net262
*1003 net263
*1004 net264
*1005 net265
*999 net266
*1084 net267
*1085 net268
*1086 net269
*704 net27
*1087 net270
*1088 net271
*1006 net272
*1089 net273
*1090 net274
*1091 net275
*1092 net276
*1007 net277
*1093 net278
*1008 net279
*705 net28
*1009 net280
*1094 net281
*1010 net282
*1011 net283
*1012 net284
*1013 net285
*1014 net286
*1015 net287
*1016 net288
*1017 net289
*706 net29
*1019 net290
*1018 net291
*1021 net292
*1023 net293
*1024 net294
*1025 net295
*1026 net296
*1027 net297
*1028 net298
*1029 net299
*680 net3
*707 net30
*1030 net300
*1031 net301
*1032 net302
*1033 net303
*1034 net304
*1036 net306
*1037 net307
*1038 net308
*1022 net309
*708 net31
*1040 net310
*1039 net311
*1042 net312
*1041 net313
*1044 net314
*1043 net315
*1045 net316
*1046 net317
*1047 net318
*1048 net319
*709 net32
*1049 net320
*1020 net321
*1050 net322
*1095 net323
*1051 net324
*1052 net325
*1053 net326
*1054 net327
*1055 net328
*1056 net329
*710 net33
*1096 net330
*1057 net331
*1058 net332
*1097 net333
*1059 net334
*1098 net335
*1060 net336
*1099 net337
*1061 net338
*1062 net339
*711 net34
*1063 net340
*1100 net341
*1064 net342
*1101 net343
*1065 net344
*1102 net345
*1066 net346
*1067 net347
*1068 net348
*1069 net349
*712 net35
*1070 net350
*1071 net351
*1072 net352
*1103 net353
*1104 net354
*1073 net355
*1074 net356
*1075 net357
*1076 net358
*1077 net359
*713 net36
*1078 net360
*1105 net361
*1106 net362
*1107 net363
*1108 net364
*1109 net365
*1110 net366
*1111 net367
*1112 net368
*1113 net369
*714 net37
*1114 net370
*1115 net371
*1116 net372
*1117 net373
*715 net38
*716 net39
*681 net4
*717 net40
*718 net41
*719 net42
*720 net43
*721 net44
*722 net45
*723 net46
*724 net47
*725 net48
*726 net49
*682 net5
*727 net50
*728 net51
*729 net52
*730 net53
*731 net54
*732 net55
*733 net56
*734 net57
*735 net58
*736 net59
*683 net6
*737 net60
*738 net61
*739 net62
*740 net63
*741 net64
*742 net65
*743 net66
*744 net67
*745 net68
*746 net69
*684 net7
*747 net70
*748 net71
*749 net72
*750 net73
*751 net74
*752 net75
*753 net76
*754 net77
*755 net78
*756 net79
*685 net8
*757 net80
*758 net81
*759 net82
*760 net83
*761 net84
*762 net85
*763 net86
*764 net87
*765 net88
*766 net89
*686 net9
*767 net90
*768 net91
*769 net92
*770 net93
*771 net94
*772 net95
*773 net96
*774 net97
*775 net98
*776 net99
*2093 FILLER_0_121
*2094 FILLER_0_130
*2095 FILLER_0_161
*2096 FILLER_0_177
*2097 FILLER_0_191
*2000 FILLER_0_2
*2098 FILLER_0_203
*2099 FILLER_0_213
*2100 FILLER_0_215
*2083 FILLER_0_24
*2084 FILLER_0_38
*2085 FILLER_0_44
*2086 FILLER_0_48
*2087 FILLER_0_59
*2088 FILLER_0_66
*2089 FILLER_0_78
*2090 FILLER_0_84
*2091 FILLER_0_86
*2092 FILLER_0_92
*2282 FILLER_10_105
*2283 FILLER_10_127
*2284 FILLER_10_153
*2285 FILLER_10_175
*2275 FILLER_10_18
*2286 FILLER_10_190
*2274 FILLER_10_2
*2276 FILLER_10_28
*2277 FILLER_10_35
*2278 FILLER_10_59
*2279 FILLER_10_68
*2280 FILLER_10_75
*2281 FILLER_10_81
*2295 FILLER_11_113
*2296 FILLER_11_122
*2297 FILLER_11_157
*2289 FILLER_11_19
*2298 FILLER_11_190
*2287 FILLER_11_2
*2299 FILLER_11_208
*2300 FILLER_11_214
*2290 FILLER_11_23
*2291 FILLER_11_46
*2292 FILLER_11_52
*2288 FILLER_11_6
*2293 FILLER_11_81
*2294 FILLER_11_99
*2308 FILLER_12_106
*2309 FILLER_12_128
*2310 FILLER_12_134
*2311 FILLER_12_142
*2312 FILLER_12_152
*2313 FILLER_12_154
*2314 FILLER_12_167
*2315 FILLER_12_194
*2301 FILLER_12_2
*2316 FILLER_12_213
*2317 FILLER_12_215
*2303 FILLER_12_41
*2304 FILLER_12_55
*2305 FILLER_12_69
*2306 FILLER_12_83
*2302 FILLER_12_9
*2307 FILLER_12_91
*2329 FILLER_13_113
*2330 FILLER_13_120
*2319 FILLER_13_13
*2331 FILLER_13_130
*2332 FILLER_13_144
*2333 FILLER_13_154
*2334 FILLER_13_162
*2335 FILLER_13_188
*2320 FILLER_13_23
*2321 FILLER_13_34
*2322 FILLER_13_42
*2323 FILLER_13_54
*2324 FILLER_13_62
*2318 FILLER_13_7
*2325 FILLER_13_77
*2326 FILLER_13_83
*2327 FILLER_13_88
*2328 FILLER_13_99
*2345 FILLER_14_141
*2346 FILLER_14_147
*2347 FILLER_14_149
*2337 FILLER_14_16
*2348 FILLER_14_166
*2349 FILLER_14_175
*2336 FILLER_14_2
*2350 FILLER_14_201
*2351 FILLER_14_209
*2338 FILLER_14_27
*2339 FILLER_14_34
*2340 FILLER_14_54
*2341 FILLER_14_70
*2342 FILLER_14_78
*2343 FILLER_14_91
*2344 FILLER_14_98
*2358 FILLER_15_102
*2359 FILLER_15_116
*2360 FILLER_15_125
*2361 FILLER_15_145
*2362 FILLER_15_176
*2363 FILLER_15_180
*2364 FILLER_15_195
*2365 FILLER_15_211
*2366 FILLER_15_215
*2352 FILLER_15_32
*2353 FILLER_15_40
*2354 FILLER_15_50
*2355 FILLER_15_56
*2356 FILLER_15_58
*2357 FILLER_15_86
*2379 FILLER_16_119
*2380 FILLER_16_155
*2381 FILLER_16_157
*2382 FILLER_16_166
*2383 FILLER_16_180
*2384 FILLER_16_184
*2385 FILLER_16_201
*2386 FILLER_16_203
*2368 FILLER_16_25
*2369 FILLER_16_32
*2370 FILLER_16_34
*2371 FILLER_16_41
*2372 FILLER_16_49
*2373 FILLER_16_58
*2374 FILLER_16_64
*2375 FILLER_16_66
*2367 FILLER_16_7
*2376 FILLER_16_76
*2377 FILLER_16_82
*2378 FILLER_16_97
*2395 FILLER_17_112
*2396 FILLER_17_140
*2397 FILLER_17_144
*2389 FILLER_17_16
*2398 FILLER_17_161
*2399 FILLER_17_165
*2400 FILLER_17_169
*2401 FILLER_17_182
*2402 FILLER_17_184
*2403 FILLER_17_197
*2387 FILLER_17_2
*2404 FILLER_17_207
*2405 FILLER_17_209
*2390 FILLER_17_26
*2391 FILLER_17_40
*2392 FILLER_17_46
*2393 FILLER_17_68
*2388 FILLER_17_8
*2394 FILLER_17_90
*2413 FILLER_18_105
*2414 FILLER_18_127
*2415 FILLER_18_140
*2416 FILLER_18_163
*2417 FILLER_18_169
*2418 FILLER_18_182
*2419 FILLER_18_197
*2406 FILLER_18_20
*2420 FILLER_18_203
*2421 FILLER_18_208
*2422 FILLER_18_210
*2407 FILLER_18_29
*2408 FILLER_18_41
*2409 FILLER_18_55
*2410 FILLER_18_57
*2411 FILLER_18_61
*2412 FILLER_18_83
*2432 FILLER_19_111
*2433 FILLER_19_125
*2434 FILLER_19_131
*2435 FILLER_19_138
*2436 FILLER_19_161
*2437 FILLER_19_167
*2438 FILLER_19_169
*2425 FILLER_19_17
*2439 FILLER_19_176
*2440 FILLER_19_180
*2441 FILLER_19_190
*2423 FILLER_19_2
*2442 FILLER_19_207
*2443 FILLER_19_213
*2444 FILLER_19_215
*2426 FILLER_19_25
*2427 FILLER_19_32
*2428 FILLER_19_40
*2429 FILLER_19_42
*2424 FILLER_19_6
*2430 FILLER_19_67
*2431 FILLER_19_89
*2109 FILLER_1_118
*2110 FILLER_1_125
*2111 FILLER_1_127
*2112 FILLER_1_147
*2102 FILLER_1_16
*2113 FILLER_1_176
*2114 FILLER_1_180
*2115 FILLER_1_184
*2116 FILLER_1_190
*2101 FILLER_1_2
*2117 FILLER_1_203
*2118 FILLER_1_213
*2119 FILLER_1_215
*2103 FILLER_1_22
*2104 FILLER_1_32
*2105 FILLER_1_34
*2106 FILLER_1_43
*2107 FILLER_1_49
*2108 FILLER_1_87
*2454 FILLER_20_107
*2455 FILLER_20_129
*2456 FILLER_20_142
*2457 FILLER_20_161
*2458 FILLER_20_171
*2445 FILLER_20_2
*2447 FILLER_20_20
*2448 FILLER_20_22
*2449 FILLER_20_36
*2446 FILLER_20_4
*2450 FILLER_20_40
*2451 FILLER_20_44
*2452 FILLER_20_63
*2453 FILLER_20_85
*2467 FILLER_21_108
*2459 FILLER_21_12
*2468 FILLER_21_130
*2469 FILLER_21_144
*2470 FILLER_21_156
*2471 FILLER_21_166
*2472 FILLER_21_168
*2460 FILLER_21_17
*2473 FILLER_21_185
*2461 FILLER_21_19
*2474 FILLER_21_197
*2475 FILLER_21_209
*2462 FILLER_21_29
*2463 FILLER_21_47
*2464 FILLER_21_49
*2465 FILLER_21_64
*2466 FILLER_21_86
*2481 FILLER_22_107
*2482 FILLER_22_129
*2483 FILLER_22_143
*2484 FILLER_22_145
*2485 FILLER_22_166
*2486 FILLER_22_177
*2487 FILLER_22_200
*2488 FILLER_22_204
*2489 FILLER_22_208
*2490 FILLER_22_210
*2476 FILLER_22_26
*2477 FILLER_22_42
*2478 FILLER_22_50
*2479 FILLER_22_63
*2480 FILLER_22_85
*2496 FILLER_23_110
*2497 FILLER_23_132
*2498 FILLER_23_146
*2499 FILLER_23_150
*2500 FILLER_23_160
*2501 FILLER_23_175
*2502 FILLER_23_185
*2503 FILLER_23_195
*2491 FILLER_23_2
*2504 FILLER_23_209
*2505 FILLER_23_215
*2492 FILLER_23_26
*2493 FILLER_23_46
*2494 FILLER_23_66
*2495 FILLER_23_88
*2512 FILLER_24_107
*2513 FILLER_24_129
*2506 FILLER_24_13
*2507 FILLER_24_15
*2514 FILLER_24_151
*2515 FILLER_24_161
*2516 FILLER_24_172
*2517 FILLER_24_192
*2518 FILLER_24_197
*2519 FILLER_24_207
*2520 FILLER_24_213
*2521 FILLER_24_215
*2508 FILLER_24_36
*2509 FILLER_24_40
*2510 FILLER_24_63
*2511 FILLER_24_85
*2528 FILLER_25_100
*2529 FILLER_25_122
*2530 FILLER_25_132
*2531 FILLER_25_134
*2532 FILLER_25_153
*2522 FILLER_25_17
*2533 FILLER_25_175
*2523 FILLER_25_19
*2534 FILLER_25_199
*2535 FILLER_25_207
*2524 FILLER_25_38
*2525 FILLER_25_40
*2526 FILLER_25_56
*2527 FILLER_25_78
*2541 FILLER_26_104
*2542 FILLER_26_126
*2543 FILLER_26_140
*2544 FILLER_26_163
*2545 FILLER_26_177
*2536 FILLER_26_2
*2546 FILLER_26_202
*2547 FILLER_26_213
*2548 FILLER_26_215
*2537 FILLER_26_24
*2538 FILLER_26_31
*2539 FILLER_26_60
*2540 FILLER_26_82
*2558 FILLER_27_110
*2559 FILLER_27_132
*2560 FILLER_27_134
*2561 FILLER_27_151
*2562 FILLER_27_166
*2563 FILLER_27_183
*2549 FILLER_27_2
*2564 FILLER_27_209
*2551 FILLER_27_23
*2552 FILLER_27_25
*2553 FILLER_27_49
*2554 FILLER_27_51
*2555 FILLER_27_58
*2556 FILLER_27_66
*2550 FILLER_27_8
*2557 FILLER_27_88
*2573 FILLER_28_107
*2574 FILLER_28_134
*2575 FILLER_28_153
*2576 FILLER_28_186
*2577 FILLER_28_192
*2578 FILLER_28_194
*2565 FILLER_28_2
*2579 FILLER_28_209
*2580 FILLER_28_215
*2567 FILLER_28_26
*2568 FILLER_28_39
*2569 FILLER_28_43
*2570 FILLER_28_50
*2566 FILLER_28_6
*2571 FILLER_28_71
*2572 FILLER_28_93
*2586 FILLER_29_105
*2587 FILLER_29_109
*2588 FILLER_29_116
*2589 FILLER_29_123
*2590 FILLER_29_134
*2581 FILLER_29_14
*2591 FILLER_29_152
*2592 FILLER_29_160
*2593 FILLER_29_164
*2594 FILLER_29_171
*2595 FILLER_29_175
*2596 FILLER_29_182
*2597 FILLER_29_207
*2582 FILLER_29_39
*2583 FILLER_29_59
*2584 FILLER_29_73
*2585 FILLER_29_83
*2129 FILLER_2_103
*2130 FILLER_2_110
*2131 FILLER_2_117
*2132 FILLER_2_122
*2133 FILLER_2_128
*2134 FILLER_2_130
*2135 FILLER_2_134
*2136 FILLER_2_149
*2137 FILLER_2_178
*2138 FILLER_2_189
*2139 FILLER_2_197
*2120 FILLER_2_2
*2140 FILLER_2_212
*2121 FILLER_2_31
*2122 FILLER_2_35
*2123 FILLER_2_46
*2124 FILLER_2_60
*2125 FILLER_2_66
*2126 FILLER_2_74
*2127 FILLER_2_78
*2128 FILLER_2_97
*2603 FILLER_30_107
*2604 FILLER_30_111
*2605 FILLER_30_133
*2606 FILLER_30_140
*2607 FILLER_30_157
*2608 FILLER_30_161
*2609 FILLER_30_177
*2610 FILLER_30_185
*2611 FILLER_30_195
*2598 FILLER_30_2
*2612 FILLER_30_212
*2600 FILLER_30_38
*2601 FILLER_30_45
*2599 FILLER_30_8
*2602 FILLER_30_85
*2615 FILLER_31_10
*2622 FILLER_31_108
*2623 FILLER_31_112
*2624 FILLER_31_127
*2625 FILLER_31_142
*2626 FILLER_31_158
*2627 FILLER_31_162
*2616 FILLER_31_17
*2628 FILLER_31_171
*2629 FILLER_31_193
*2613 FILLER_31_2
*2630 FILLER_31_210
*2617 FILLER_31_24
*2618 FILLER_31_30
*2619 FILLER_31_43
*2620 FILLER_31_50
*2614 FILLER_31_8
*2621 FILLER_31_86
*2639 FILLER_32_106
*2640 FILLER_32_116
*2641 FILLER_32_124
*2642 FILLER_32_139
*2643 FILLER_32_150
*2644 FILLER_32_160
*2645 FILLER_32_164
*2646 FILLER_32_191
*2631 FILLER_32_2
*2647 FILLER_32_203
*2648 FILLER_32_211
*2649 FILLER_32_215
*2632 FILLER_32_24
*2633 FILLER_32_34
*2634 FILLER_32_50
*2635 FILLER_32_57
*2636 FILLER_32_67
*2637 FILLER_32_76
*2638 FILLER_32_84
*2660 FILLER_33_104
*2661 FILLER_33_112
*2662 FILLER_33_128
*2663 FILLER_33_130
*2664 FILLER_33_141
*2665 FILLER_33_143
*2666 FILLER_33_150
*2667 FILLER_33_152
*2668 FILLER_33_169
*2669 FILLER_33_171
*2652 FILLER_33_18
*2670 FILLER_33_186
*2650 FILLER_33_2
*2653 FILLER_33_20
*2671 FILLER_33_206
*2654 FILLER_33_27
*2655 FILLER_33_31
*2656 FILLER_33_41
*2657 FILLER_33_45
*2658 FILLER_33_52
*2651 FILLER_33_6
*2659 FILLER_33_82
*2682 FILLER_34_111
*2683 FILLER_34_121
*2684 FILLER_34_123
*2685 FILLER_34_133
*2686 FILLER_34_139
*2687 FILLER_34_177
*2688 FILLER_34_179
*2689 FILLER_34_189
*2690 FILLER_34_204
*2672 FILLER_34_24
*2673 FILLER_34_30
*2674 FILLER_34_38
*2675 FILLER_34_40
*2676 FILLER_34_50
*2677 FILLER_34_62
*2678 FILLER_34_76
*2679 FILLER_34_78
*2680 FILLER_34_85
*2681 FILLER_34_95
*2698 FILLER_35_104
*2699 FILLER_35_117
*2700 FILLER_35_125
*2701 FILLER_35_133
*2702 FILLER_35_139
*2703 FILLER_35_141
*2704 FILLER_35_148
*2705 FILLER_35_174
*2706 FILLER_35_188
*2707 FILLER_35_212
*2691 FILLER_35_23
*2692 FILLER_35_29
*2693 FILLER_35_42
*2694 FILLER_35_56
*2695 FILLER_35_64
*2696 FILLER_35_84
*2697 FILLER_35_92
*2717 FILLER_36_102
*2709 FILLER_36_11
*2718 FILLER_36_118
*2719 FILLER_36_120
*2720 FILLER_36_133
*2721 FILLER_36_162
*2722 FILLER_36_174
*2723 FILLER_36_213
*2724 FILLER_36_215
*2710 FILLER_36_23
*2711 FILLER_36_34
*2712 FILLER_36_40
*2713 FILLER_36_42
*2714 FILLER_36_49
*2715 FILLER_36_55
*2708 FILLER_36_7
*2716 FILLER_36_88
*2734 FILLER_37_101
*2735 FILLER_37_103
*2727 FILLER_37_11
*2736 FILLER_37_122
*2737 FILLER_37_136
*2738 FILLER_37_150
*2739 FILLER_37_160
*2740 FILLER_37_174
*2725 FILLER_37_2
*2741 FILLER_37_202
*2728 FILLER_37_21
*2729 FILLER_37_33
*2730 FILLER_37_55
*2731 FILLER_37_62
*2726 FILLER_37_7
*2732 FILLER_37_74
*2733 FILLER_37_87
*2751 FILLER_38_101
*2752 FILLER_38_114
*2753 FILLER_38_116
*2754 FILLER_38_123
*2755 FILLER_38_129
*2756 FILLER_38_131
*2757 FILLER_38_137
*2758 FILLER_38_142
*2759 FILLER_38_148
*2760 FILLER_38_150
*2761 FILLER_38_163
*2762 FILLER_38_165
*2763 FILLER_38_172
*2764 FILLER_38_182
*2765 FILLER_38_184
*2766 FILLER_38_197
*2742 FILLER_38_21
*2767 FILLER_38_211
*2768 FILLER_38_215
*2743 FILLER_38_39
*2744 FILLER_38_45
*2745 FILLER_38_52
*2746 FILLER_38_60
*2747 FILLER_38_66
*2748 FILLER_38_68
*2749 FILLER_38_81
*2750 FILLER_38_87
*2771 FILLER_39_10
*2780 FILLER_39_101
*2781 FILLER_39_109
*2782 FILLER_39_135
*2783 FILLER_39_146
*2784 FILLER_39_163
*2785 FILLER_39_182
*2786 FILLER_39_186
*2769 FILLER_39_2
*2772 FILLER_39_20
*2787 FILLER_39_203
*2788 FILLER_39_211
*2789 FILLER_39_215
*2773 FILLER_39_24
*2774 FILLER_39_28
*2775 FILLER_39_38
*2776 FILLER_39_40
*2777 FILLER_39_56
*2770 FILLER_39_8
*2778 FILLER_39_87
*2779 FILLER_39_97
*2153 FILLER_3_108
*2154 FILLER_3_122
*2155 FILLER_3_132
*2142 FILLER_3_14
*2156 FILLER_3_145
*2143 FILLER_3_16
*2157 FILLER_3_162
*2158 FILLER_3_180
*2159 FILLER_3_193
*2141 FILLER_3_2
*2160 FILLER_3_211
*2161 FILLER_3_215
*2144 FILLER_3_23
*2145 FILLER_3_39
*2146 FILLER_3_53
*2147 FILLER_3_61
*2148 FILLER_3_67
*2149 FILLER_3_69
*2150 FILLER_3_76
*2151 FILLER_3_94
*2152 FILLER_3_98
*2792 FILLER_40_10
*2797 FILLER_40_105
*2798 FILLER_40_109
*2799 FILLER_40_122
*2800 FILLER_40_129
*2801 FILLER_40_137
*2802 FILLER_40_144
*2803 FILLER_40_149
*2804 FILLER_40_157
*2805 FILLER_40_173
*2790 FILLER_40_2
*2806 FILLER_40_211
*2807 FILLER_40_215
*2793 FILLER_40_38
*2794 FILLER_40_60
*2795 FILLER_40_75
*2791 FILLER_40_8
*2796 FILLER_40_91
*2815 FILLER_41_100
*2816 FILLER_41_107
*2817 FILLER_41_109
*2809 FILLER_41_12
*2818 FILLER_41_121
*2819 FILLER_41_123
*2820 FILLER_41_157
*2821 FILLER_41_163
*2822 FILLER_41_181
*2808 FILLER_41_2
*2823 FILLER_41_207
*2824 FILLER_41_213
*2825 FILLER_41_215
*2810 FILLER_41_33
*2811 FILLER_41_52
*2812 FILLER_41_63
*2813 FILLER_41_67
*2814 FILLER_41_75
*2839 FILLER_42_103
*2840 FILLER_42_105
*2841 FILLER_42_126
*2842 FILLER_42_128
*2843 FILLER_42_147
*2827 FILLER_42_16
*2844 FILLER_42_167
*2826 FILLER_42_2
*2845 FILLER_42_202
*2828 FILLER_42_22
*2829 FILLER_42_29
*2830 FILLER_42_43
*2831 FILLER_42_50
*2832 FILLER_42_66
*2833 FILLER_42_70
*2834 FILLER_42_76
*2835 FILLER_42_82
*2836 FILLER_42_84
*2837 FILLER_42_95
*2838 FILLER_42_97
*2172 FILLER_4_115
*2163 FILLER_4_12
*2173 FILLER_4_130
*2174 FILLER_4_138
*2175 FILLER_4_145
*2176 FILLER_4_181
*2177 FILLER_4_188
*2178 FILLER_4_192
*2162 FILLER_4_2
*2179 FILLER_4_200
*2180 FILLER_4_211
*2181 FILLER_4_215
*2164 FILLER_4_28
*2165 FILLER_4_36
*2166 FILLER_4_44
*2167 FILLER_4_59
*2168 FILLER_4_65
*2169 FILLER_4_78
*2170 FILLER_4_84
*2171 FILLER_4_92
*2193 FILLER_5_118
*2194 FILLER_5_132
*2195 FILLER_5_142
*2196 FILLER_5_156
*2184 FILLER_5_16
*2197 FILLER_5_162
*2198 FILLER_5_169
*2199 FILLER_5_173
*2200 FILLER_5_180
*2201 FILLER_5_191
*2182 FILLER_5_2
*2202 FILLER_5_201
*2203 FILLER_5_214
*2185 FILLER_5_22
*2186 FILLER_5_29
*2187 FILLER_5_43
*2188 FILLER_5_55
*2183 FILLER_5_6
*2189 FILLER_5_69
*2190 FILLER_5_77
*2191 FILLER_5_84
*2192 FILLER_5_92
*2212 FILLER_6_122
*2213 FILLER_6_132
*2214 FILLER_6_134
*2215 FILLER_6_141
*2216 FILLER_6_163
*2217 FILLER_6_189
*2204 FILLER_6_2
*2205 FILLER_6_22
*2206 FILLER_6_32
*2207 FILLER_6_54
*2208 FILLER_6_62
*2209 FILLER_6_75
*2210 FILLER_6_81
*2211 FILLER_6_89
*2229 FILLER_7_105
*2230 FILLER_7_127
*2219 FILLER_7_14
*2231 FILLER_7_145
*2232 FILLER_7_164
*2233 FILLER_7_178
*2220 FILLER_7_19
*2234 FILLER_7_193
*2235 FILLER_7_200
*2236 FILLER_7_209
*2237 FILLER_7_215
*2221 FILLER_7_24
*2222 FILLER_7_39
*2223 FILLER_7_41
*2224 FILLER_7_49
*2225 FILLER_7_66
*2226 FILLER_7_70
*2227 FILLER_7_78
*2218 FILLER_7_8
*2228 FILLER_7_85
*2239 FILLER_8_10
*2248 FILLER_8_104
*2249 FILLER_8_118
*2250 FILLER_8_124
*2251 FILLER_8_140
*2252 FILLER_8_152
*2253 FILLER_8_174
*2254 FILLER_8_180
*2255 FILLER_8_182
*2256 FILLER_8_196
*2257 FILLER_8_200
*2240 FILLER_8_24
*2241 FILLER_8_26
*2242 FILLER_8_33
*2243 FILLER_8_35
*2244 FILLER_8_42
*2245 FILLER_8_58
*2246 FILLER_8_75
*2238 FILLER_8_8
*2247 FILLER_8_83
*2260 FILLER_9_10
*2266 FILLER_9_110
*2267 FILLER_9_132
*2268 FILLER_9_142
*2269 FILLER_9_157
*2270 FILLER_9_173
*2271 FILLER_9_179
*2272 FILLER_9_181
*2273 FILLER_9_197
*2258 FILLER_9_2
*2261 FILLER_9_29
*2262 FILLER_9_35
*2263 FILLER_9_48
*2259 FILLER_9_8
*2264 FILLER_9_82
*2265 FILLER_9_88
*1762 PHY_EDGE_ROW_0_Left_43
*1719 PHY_EDGE_ROW_0_Right_0
*1772 PHY_EDGE_ROW_10_Left_53
*1729 PHY_EDGE_ROW_10_Right_10
*1773 PHY_EDGE_ROW_11_Left_54
*1730 PHY_EDGE_ROW_11_Right_11
*1774 PHY_EDGE_ROW_12_Left_55
*1731 PHY_EDGE_ROW_12_Right_12
*1775 PHY_EDGE_ROW_13_Left_56
*1732 PHY_EDGE_ROW_13_Right_13
*1776 PHY_EDGE_ROW_14_Left_57
*1733 PHY_EDGE_ROW_14_Right_14
*1777 PHY_EDGE_ROW_15_Left_58
*1734 PHY_EDGE_ROW_15_Right_15
*1778 PHY_EDGE_ROW_16_Left_59
*1735 PHY_EDGE_ROW_16_Right_16
*1779 PHY_EDGE_ROW_17_Left_60
*1736 PHY_EDGE_ROW_17_Right_17
*1780 PHY_EDGE_ROW_18_Left_61
*1737 PHY_EDGE_ROW_18_Right_18
*1781 PHY_EDGE_ROW_19_Left_62
*1738 PHY_EDGE_ROW_19_Right_19
*1763 PHY_EDGE_ROW_1_Left_44
*1720 PHY_EDGE_ROW_1_Right_1
*1782 PHY_EDGE_ROW_20_Left_63
*1739 PHY_EDGE_ROW_20_Right_20
*1783 PHY_EDGE_ROW_21_Left_64
*1740 PHY_EDGE_ROW_21_Right_21
*1784 PHY_EDGE_ROW_22_Left_65
*1741 PHY_EDGE_ROW_22_Right_22
*1785 PHY_EDGE_ROW_23_Left_66
*1742 PHY_EDGE_ROW_23_Right_23
*1786 PHY_EDGE_ROW_24_Left_67
*1743 PHY_EDGE_ROW_24_Right_24
*1787 PHY_EDGE_ROW_25_Left_68
*1744 PHY_EDGE_ROW_25_Right_25
*1788 PHY_EDGE_ROW_26_Left_69
*1745 PHY_EDGE_ROW_26_Right_26
*1789 PHY_EDGE_ROW_27_Left_70
*1746 PHY_EDGE_ROW_27_Right_27
*1790 PHY_EDGE_ROW_28_Left_71
*1747 PHY_EDGE_ROW_28_Right_28
*1791 PHY_EDGE_ROW_29_Left_72
*1748 PHY_EDGE_ROW_29_Right_29
*1764 PHY_EDGE_ROW_2_Left_45
*1721 PHY_EDGE_ROW_2_Right_2
*1792 PHY_EDGE_ROW_30_Left_73
*1749 PHY_EDGE_ROW_30_Right_30
*1793 PHY_EDGE_ROW_31_Left_74
*1750 PHY_EDGE_ROW_31_Right_31
*1794 PHY_EDGE_ROW_32_Left_75
*1751 PHY_EDGE_ROW_32_Right_32
*1795 PHY_EDGE_ROW_33_Left_76
*1752 PHY_EDGE_ROW_33_Right_33
*1796 PHY_EDGE_ROW_34_Left_77
*1753 PHY_EDGE_ROW_34_Right_34
*1797 PHY_EDGE_ROW_35_Left_78
*1754 PHY_EDGE_ROW_35_Right_35
*1798 PHY_EDGE_ROW_36_Left_79
*1755 PHY_EDGE_ROW_36_Right_36
*1799 PHY_EDGE_ROW_37_Left_80
*1756 PHY_EDGE_ROW_37_Right_37
*1800 PHY_EDGE_ROW_38_Left_81
*1757 PHY_EDGE_ROW_38_Right_38
*1801 PHY_EDGE_ROW_39_Left_82
*1758 PHY_EDGE_ROW_39_Right_39
*1765 PHY_EDGE_ROW_3_Left_46
*1722 PHY_EDGE_ROW_3_Right_3
*1802 PHY_EDGE_ROW_40_Left_83
*1759 PHY_EDGE_ROW_40_Right_40
*1803 PHY_EDGE_ROW_41_Left_84
*1760 PHY_EDGE_ROW_41_Right_41
*1804 PHY_EDGE_ROW_42_Left_85
*1761 PHY_EDGE_ROW_42_Right_42
*1766 PHY_EDGE_ROW_4_Left_47
*1723 PHY_EDGE_ROW_4_Right_4
*1767 PHY_EDGE_ROW_5_Left_48
*1724 PHY_EDGE_ROW_5_Right_5
*1768 PHY_EDGE_ROW_6_Left_49
*1725 PHY_EDGE_ROW_6_Right_6
*1769 PHY_EDGE_ROW_7_Left_50
*1726 PHY_EDGE_ROW_7_Right_7
*1770 PHY_EDGE_ROW_8_Left_51
*1727 PHY_EDGE_ROW_8_Right_8
*1771 PHY_EDGE_ROW_9_Left_52
*1728 PHY_EDGE_ROW_9_Right_9
*1118 _0677_
*1119 _0678_
*1120 _0679_
*1121 _0680_
*1122 _0681_
*1123 _0682_
*1124 _0683_
*1125 _0684_
*1126 _0685_
*1127 _0686_
*1128 _0687_
*1129 _0688_
*1130 _0689_
*1131 _0690_
*1132 _0691_
*1133 _0692_
*1134 _0693_
*1135 _0694_
*1136 _0695_
*1137 _0696_
*1138 _0697_
*1139 _0698_
*1140 _0699_
*1141 _0700_
*1142 _0701_
*1143 _0702_
*1144 _0703_
*1145 _0704_
*1146 _0705_
*1147 _0706_
*1148 _0707_
*1149 _0708_
*1150 _0709_
*1151 _0710_
*1152 _0711_
*1153 _0712_
*1154 _0713_
*1155 _0714_
*1156 _0715_
*1157 _0716_
*1158 _0717_
*1159 _0718_
*1160 _0719_
*1161 _0720_
*1162 _0721_
*1163 _0722_
*1164 _0723_
*1165 _0724_
*1166 _0725_
*1167 _0726_
*1168 _0727_
*1169 _0728_
*1170 _0729_
*1171 _0730_
*1172 _0731_
*1173 _0732_
*1174 _0733_
*1175 _0734_
*1176 _0735_
*1177 _0736_
*1178 _0737_
*1179 _0738_
*1180 _0739_
*1181 _0740_
*1182 _0741_
*1183 _0742_
*1184 _0743_
*1185 _0744_
*1186 _0745_
*1187 _0746_
*1188 _0747_
*1189 _0748_
*1190 _0749_
*1191 _0750_
*1192 _0751_
*1193 _0752_
*1194 _0753_
*1195 _0754_
*1196 _0755_
*1197 _0756_
*1198 _0757_
*1199 _0758_
*1200 _0759_
*1201 _0760_
*1202 _0761_
*1203 _0762_
*1204 _0763_
*1205 _0764_
*1206 _0765_
*1207 _0766_
*1208 _0767_
*1209 _0768_
*1210 _0769_
*1211 _0770_
*1212 _0771_
*1213 _0772_
*1214 _0773_
*1215 _0774_
*1216 _0775_
*1217 _0776_
*1218 _0777_
*1219 _0778_
*1220 _0779_
*1221 _0780_
*1222 _0781_
*1223 _0782_
*1224 _0783_
*1225 _0784_
*1226 _0785_
*1227 _0786_
*1228 _0787_
*1229 _0788_
*1230 _0789_
*1231 _0790_
*1232 _0791_
*1233 _0792_
*1234 _0793_
*1235 _0794_
*1236 _0795_
*1237 _0796_
*1238 _0797_
*1239 _0798_
*1240 _0799_
*1241 _0800_
*1242 _0801_
*1243 _0802_
*1244 _0803_
*1245 _0804_
*1246 _0805_
*1247 _0806_
*1248 _0807_
*1249 _0808_
*1250 _0809_
*1251 _0810_
*1252 _0811_
*1253 _0812_
*1254 _0813_
*1255 _0814_
*1256 _0815_
*1257 _0816_
*1258 _0817_
*1260 _0819_
*1261 _0820_
*1262 _0821_
*1263 _0822_
*1264 _0823_
*1265 _0824_
*1266 _0825_
*1267 _0826_
*1268 _0827_
*1269 _0828_
*1270 _0829_
*1271 _0830_
*1272 _0831_
*1273 _0832_
*1274 _0833_
*1275 _0834_
*1276 _0835_
*1277 _0836_
*1278 _0837_
*1279 _0838_
*1280 _0839_
*1281 _0840_
*1282 _0841_
*1283 _0842_
*1284 _0843_
*1285 _0844_
*1286 _0845_
*1287 _0846_
*1288 _0847_
*1289 _0848_
*1290 _0849_
*1291 _0850_
*1292 _0851_
*1295 _0854_
*1296 _0855_
*1297 _0856_
*1298 _0857_
*1299 _0858_
*1300 _0859_
*1301 _0860_
*1302 _0861_
*1303 _0862_
*1304 _0863_
*1305 _0864_
*1306 _0865_
*1307 _0866_
*1308 _0867_
*1309 _0868_
*1310 _0869_
*1311 _0870_
*1312 _0871_
*1313 _0872_
*1314 _0873_
*1315 _0874_
*1316 _0875_
*1317 _0876_
*1318 _0877_
*1319 _0878_
*1320 _0879_
*1321 _0880_
*1322 _0881_
*1323 _0882_
*1324 _0883_
*1325 _0884_
*1326 _0885_
*1327 _0886_
*1328 _0887_
*1329 _0888_
*1330 _0889_
*1331 _0890_
*1332 _0891_
*1333 _0892_
*1334 _0893_
*1335 _0894_
*1336 _0895_
*1337 _0896_
*1338 _0897_
*1339 _0898_
*1340 _0899_
*1341 _0900_
*1342 _0901_
*1343 _0902_
*1344 _0903_
*1345 _0904_
*1346 _0905_
*1347 _0906_
*1348 _0907_
*1349 _0908_
*1350 _0909_
*1351 _0910_
*1352 _0911_
*1353 _0912_
*1354 _0913_
*1355 _0914_
*1356 _0915_
*1357 _0916_
*1358 _0917_
*1359 _0918_
*1360 _0919_
*1361 _0920_
*1362 _0921_
*1363 _0922_
*1364 _0923_
*1365 _0924_
*1366 _0925_
*1367 _0926_
*1368 _0927_
*1369 _0928_
*1370 _0929_
*1371 _0930_
*1372 _0931_
*1373 _0932_
*1374 _0933_
*1375 _0934_
*1376 _0935_
*1377 _0936_
*1378 _0937_
*1379 _0938_
*1380 _0939_
*1381 _0940_
*1382 _0941_
*1384 _0943_
*1385 _0944_
*1386 _0945_
*1387 _0946_
*1388 _0947_
*1389 _0948_
*1390 _0949_
*1391 _0950_
*1392 _0951_
*1393 _0952_
*1394 _0953_
*1395 _0954_
*1396 _0955_
*1397 _0956_
*1398 _0957_
*1399 _0958_
*1400 _0959_
*1401 _0960_
*1402 _0961_
*1403 _0962_
*1404 _0963_
*1405 _0964_
*1406 _0965_
*1407 _0966_
*1408 _0967_
*1409 _0968_
*1410 _0969_
*1411 _0970_
*1414 _0973_
*1415 _0974_
*1416 _0975_
*1417 _0976_
*1418 _0977_
*1419 _0978_
*1420 _0979_
*1421 _0980_
*1422 _0981_
*1423 _0982_
*1424 _0983_
*1425 _0984_
*1426 _0985_
*1427 _0986_
*1428 _0987_
*1429 _0988_
*1430 _0989_
*1431 _0990_
*1432 _0991_
*1433 _0992_
*1434 _0993_
*1435 _0994_
*1436 _0995_
*1437 _0996_
*1438 _0997_
*1439 _0998_
*1440 _0999_
*1441 _1000_
*1442 _1001_
*1443 _1002_
*1444 _1003_
*1445 _1004_
*1446 _1005_
*1447 _1006_
*1448 _1007_
*1449 _1008_
*1450 _1009_
*1451 _1010_
*1452 _1011_
*1453 _1012_
*1454 _1013_
*1455 _1014_
*1456 _1015_
*1457 _1016_
*1458 _1017_
*1459 _1018_
*1460 _1019_
*1461 _1020_
*1462 _1021_
*1463 _1022_
*1464 _1023_
*1465 _1024_
*1466 _1025_
*1467 _1026_
*1468 _1027_
*1469 _1028_
*1470 _1029_
*1471 _1030_
*1472 _1031_
*1473 _1032_
*1474 _1033_
*1475 _1034_
*1476 _1035_
*1477 _1036_
*1478 _1037_
*1479 _1038_
*1480 _1039_
*1481 _1040_
*1482 _1041_
*1483 _1042_
*1484 _1043_
*1485 _1044_
*1486 _1045_
*1487 _1046_
*1488 _1047_
*1489 _1048_
*1490 _1049_
*1491 _1050_
*1492 _1051_
*1493 _1052_
*1494 _1053_
*1495 _1054_
*1496 _1055_
*1497 _1056_
*1498 _1057_
*1499 _1058_
*1500 _1059_
*1501 _1060_
*1502 _1061_
*1503 _1062_
*1504 _1063_
*1505 _1064_
*1506 _1065_
*1507 _1066_
*1508 _1067_
*1509 _1068_
*1510 _1069_
*1511 _1070_
*1512 _1071_
*1513 _1072_
*1514 _1073_
*1515 _1074_
*1516 _1075_
*1517 _1076_
*1518 _1077_
*1519 _1078_
*1520 _1079_
*1521 _1080_
*1522 _1081_
*1523 _1082_
*1524 _1083_
*1525 _1084_
*1526 _1085_
*1527 _1086_
*1528 _1087_
*1529 _1088_
*1530 _1089_
*1531 _1090_
*1534 _1093_
*1535 _1094_
*1536 _1095_
*1537 _1096_
*1538 _1097_
*1539 _1098_
*1540 _1099_
*1541 _1100_
*1542 _1101_
*1543 _1102_
*1544 _1103_
*1545 _1104_
*1546 _1105_
*1547 _1106_
*1548 _1107_
*1549 _1108_
*1550 _1109_
*1551 _1110_
*1552 _1111_
*1553 _1112_
*1554 _1113_
*1555 _1114_
*1556 _1115_
*1557 _1116_
*1558 _1117_
*1559 _1118_
*1560 _1119_
*1561 _1120_
*1562 _1121_
*1563 _1122_
*1564 _1123_
*1565 _1124_
*1566 _1125_
*1567 _1126_
*1568 _1127_
*1569 _1128_
*1570 _1129_
*1571 _1130_
*1572 _1131_
*1573 _1132_
*1574 _1133_
*1575 _1134_
*1576 _1135_
*1577 _1136_
*1578 _1137_
*1579 _1138_
*1580 _1139_
*1581 _1140_
*1582 _1141_
*1583 _1142_
*1584 _1143_
*1585 _1144_
*1586 _1145_
*1587 _1146_
*1588 _1147_
*1589 _1148_
*1590 _1149_
*1591 _1150_
*1592 _1151_
*1593 _1152_
*1594 _1153_
*1595 _1154_
*1596 _1155_
*1597 _1156_
*1598 _1157_
*1599 _1158_
*1600 _1159_
*1601 _1160_
*1602 _1161_
*1603 _1162_
*1604 _1163_
*1605 _1164_
*1606 _1165_
*1607 _1166_
*1608 _1167_
*1609 _1168_
*1610 _1169_
*1611 _1170_
*1612 _1171_
*1613 _1172_
*1614 _1173_
*1615 _1174_
*1616 _1175_
*1617 _1176_
*1618 _1177_
*1619 _1178_
*1620 _1179_
*1621 _1180_
*1622 _1181_
*1623 _1182_
*1624 _1183_
*1625 _1184_
*1626 _1185_
*1627 _1186_
*1628 _1187_
*1629 _1188_
*1630 _1189_
*1631 _1190_
*1632 _1191_
*1633 _1192_
*1634 _1193_
*1635 _1194_
*1636 _1195_
*1637 _1196_
*1638 _1197_
*1639 _1198_
*1640 _1199_
*1641 _1200_
*1642 _1201_
*1643 _1202_
*1644 _1203_
*1645 _1204_
*1646 _1205_
*1647 _1206_
*1648 _1207_
*1649 _1208_
*1650 _1209_
*1651 _1210_
*1652 _1211_
*1653 _1212_
*1654 _1213_
*1655 _1214_
*1656 _1215_
*1657 _1216_
*1658 _1217_
*1659 _1218_
*1660 _1219_
*1661 _1220_
*1662 _1221_
*1663 _1222_
*1664 _1223_
*1665 _1224_
*1666 _1225_
*1667 _1226_
*1668 _1227_
*1669 _1228_
*1670 _1229_
*1671 _1230_
*1672 _1231_
*1673 _1232_
*1674 _1233_
*1675 _1234_
*1676 _1235_
*1677 _1236_
*1678 _1237_
*1679 _1238_
*1680 _1239_
*1681 _1240_
*1682 _1241_
*1683 _1242_
*1684 _1243_
*1685 _1244_
*1686 _1245_
*1687 _1246_
*1688 _1247_
*1689 _1248_
*1690 _1249_
*1691 _1250_
*1692 _1251_
*1693 _1252_
*1694 _1253_
*1695 _1254_
*1696 _1255_
*1697 _1256_
*1698 _1257_
*1699 _1258_
*1700 _1259_
*1701 _1260_
*1702 _1261_
*1703 _1262_
*1704 _1263_
*1705 _1264_
*1706 _1265_
*1707 _1266_
*1708 _1267_
*1709 _1268_
*1710 _1269_
*1711 _1270_
*1712 _1271_
*1713 _1272_
*1714 _1273_
*1715 _1274_
*1716 _1275_
*1717 _1276_
*1718 _1277_
*1533 input1
*1806 input10
*1896 input100
*1897 input101
*1898 input102
*1899 input103
*1900 input104
*1901 input105
*1902 input106
*1903 input107
*1904 input108
*1905 input109
*1807 input11
*1906 input110
*1907 input111
*1908 input112
*1909 input113
*1910 input114
*1911 input115
*1912 input116
*1913 input117
*1914 input118
*1915 input119
*1808 input12
*1916 input120
*1917 input121
*1918 input122
*1919 input123
*1920 input124
*1921 input125
*1922 input126
*1923 input127
*1924 input128
*1809 input13
*1810 input14
*1811 input15
*1812 input16
*1813 input17
*1814 input18
*1815 input19
*1532 input2
*1816 input20
*1817 input21
*1818 input22
*1819 input23
*1820 input24
*1821 input25
*1822 input26
*1823 input27
*1824 input28
*1825 input29
*1413 input3
*1826 input30
*1827 input31
*1828 input32
*1829 input33
*1830 input34
*1831 input35
*1832 input36
*1833 input37
*1834 input38
*1835 input39
*1412 input4
*1836 input40
*1837 input41
*1838 input42
*1839 input43
*1840 input44
*1841 input45
*1842 input46
*1843 input47
*1844 input48
*1845 input49
*1383 input5
*1846 input50
*1847 input51
*1848 input52
*1849 input53
*1850 input54
*1851 input55
*1852 input56
*1853 input57
*1854 input58
*1855 input59
*1294 input6
*1856 input60
*1857 input61
*1858 input62
*1859 input63
*1860 input64
*1861 input65
*1862 input66
*1863 input67
*1864 input68
*1865 input69
*1293 input7
*1866 input70
*1867 input71
*1868 input72
*1869 input73
*1870 input74
*1871 input75
*1872 input76
*1873 input77
*1874 input78
*1875 input79
*1259 input8
*1876 input80
*1877 input81
*1878 input82
*1879 input83
*1880 input84
*1881 input85
*1882 input86
*1883 input87
*1884 input88
*1885 input89
*1805 input9
*1886 input90
*1887 input91
*1888 input92
*1889 input93
*1890 input94
*1891 input95
*1892 input96
*1893 input97
*1894 input98
*1895 input99
*1925 output129
*1926 output130
*1927 output131
*1928 output132
*1929 output133
*1930 output134
*1931 output135
*1932 output136
*1933 output137
*1934 output138
*1935 output139
*1936 output140
*1937 output141
*1938 output142
*1939 output143
*1940 output144
*1941 output145
*1942 output146
*1943 output147
*1944 output148
*1945 output149
*1946 output150
*1947 output151
*1948 output152
*1949 output153
*1950 output154
*1951 output155
*1952 output156
*1953 output157
*1954 output158
*1955 output159
*1956 output160
*2044 place248
*2045 place249
*2046 place250
*1957 place251
*1958 place252
*1959 place253
*1960 place254
*2047 place255
*1961 place256
*1962 place257
*2048 place258
*1963 place259
*1965 place260
*1966 place261
*1967 place262
*1968 place263
*1969 place264
*1970 place265
*1964 place266
*2049 place267
*2050 place268
*2051 place269
*2052 place270
*2053 place271
*1971 place272
*2054 place273
*2055 place274
*2056 place275
*2057 place276
*1972 place277
*2058 place278
*1973 place279
*1974 place280
*2059 place281
*1975 place282
*1976 place283
*1977 place284
*1978 place285
*1979 place286
*1980 place287
*1981 place288
*1982 place289
*1984 place290
*1983 place291
*1986 place292
*1988 place293
*1989 place294
*1990 place295
*1991 place296
*1992 place297
*1993 place298
*1994 place299
*1995 place300
*1996 place301
*1997 place302
*1998 place303
*1999 place304
*2001 place306
*2002 place307
*2003 place308
*1987 place309
*2005 place310
*2004 place311
*2007 place312
*2006 place313
*2009 place314
*2008 place315
*2010 place316
*2011 place317
*2012 place318
*2013 place319
*2014 place320
*1985 place321
*2015 place322
*2060 place323
*2016 place324
*2017 place325
*2018 place326
*2019 place327
*2020 place328
*2021 place329
*2061 place330
*2022 place331
*2023 place332
*2062 place333
*2024 place334
*2063 place335
*2025 place336
*2064 place337
*2026 place338
*2027 place339
*2028 place340
*2065 place341
*2029 place342
*2066 place343
*2030 place344
*2067 place345
*2031 place346
*2032 place347
*2033 place348
*2034 place349
*2035 place350
*2036 place351
*2037 place352
*2068 place353
*2069 place354
*2038 place355
*2039 place356
*2040 place357
*2041 place358
*2042 place359
*2043 rebuffer360
*2070 rebuffer361
*2071 rebuffer362
*2072 rebuffer363
*2073 rebuffer364
*2074 rebuffer365
*2075 rebuffer366
*2076 rebuffer367
*2077 rebuffer368
*2078 rebuffer369
*2079 rebuffer370
*2080 rebuffer371
*2081 rebuffer372
*2082 rebuffer373

*PORTS
imagem_in[0] I
imagem_in[100] I
imagem_in[101] I
imagem_in[102] I
imagem_in[103] I
imagem_in[104] I
imagem_in[105] I
imagem_in[106] I
imagem_in[107] I
imagem_in[108] I
imagem_in[109] I
imagem_in[10] I
imagem_in[110] I
imagem_in[111] I
imagem_in[112] I
imagem_in[113] I
imagem_in[114] I
imagem_in[115] I
imagem_in[116] I
imagem_in[117] I
imagem_in[118] I
imagem_in[119] I
imagem_in[11] I
imagem_in[120] I
imagem_in[121] I
imagem_in[122] I
imagem_in[123] I
imagem_in[124] I
imagem_in[125] I
imagem_in[126] I
imagem_in[127] I
imagem_in[12] I
imagem_in[13] I
imagem_in[14] I
imagem_in[15] I
imagem_in[16] I
imagem_in[17] I
imagem_in[18] I
imagem_in[19] I
imagem_in[1] I
imagem_in[20] I
imagem_in[21] I
imagem_in[22] I
imagem_in[23] I
imagem_in[24] I
imagem_in[25] I
imagem_in[26] I
imagem_in[27] I
imagem_in[28] I
imagem_in[29] I
imagem_in[2] I
imagem_in[30] I
imagem_in[31] I
imagem_in[32] I
imagem_in[33] I
imagem_in[34] I
imagem_in[35] I
imagem_in[36] I
imagem_in[37] I
imagem_in[38] I
imagem_in[39] I
imagem_in[3] I
imagem_in[40] I
imagem_in[41] I
imagem_in[42] I
imagem_in[43] I
imagem_in[44] I
imagem_in[45] I
imagem_in[46] I
imagem_in[47] I
imagem_in[48] I
imagem_in[49] I
imagem_in[4] I
imagem_in[50] I
imagem_in[51] I
imagem_in[52] I
imagem_in[53] I
imagem_in[54] I
imagem_in[55] I
imagem_in[56] I
imagem_in[57] I
imagem_in[58] I
imagem_in[59] I
imagem_in[5] I
imagem_in[60] I
imagem_in[61] I
imagem_in[62] I
imagem_in[63] I
imagem_in[64] I
imagem_in[65] I
imagem_in[66] I
imagem_in[67] I
imagem_in[68] I
imagem_in[69] I
imagem_in[6] I
imagem_in[70] I
imagem_in[71] I
imagem_in[72] I
imagem_in[73] I
imagem_in[74] I
imagem_in[75] I
imagem_in[76] I
imagem_in[77] I
imagem_in[78] I
imagem_in[79] I
imagem_in[7] I
imagem_in[80] I
imagem_in[81] I
imagem_in[82] I
imagem_in[83] I
imagem_in[84] I
imagem_in[85] I
imagem_in[86] I
imagem_in[87] I
imagem_in[88] I
imagem_in[89] I
imagem_in[8] I
imagem_in[90] I
imagem_in[91] I
imagem_in[92] I
imagem_in[93] I
imagem_in[94] I
imagem_in[95] I
imagem_in[96] I
imagem_in[97] I
imagem_in[98] I
imagem_in[99] I
imagem_in[9] I
imagem_out[0] O
imagem_out[10] O
imagem_out[11] O
imagem_out[12] O
imagem_out[13] O
imagem_out[14] O
imagem_out[15] O
imagem_out[16] O
imagem_out[17] O
imagem_out[18] O
imagem_out[19] O
imagem_out[1] O
imagem_out[20] O
imagem_out[21] O
imagem_out[22] O
imagem_out[23] O
imagem_out[24] O
imagem_out[25] O
imagem_out[26] O
imagem_out[27] O
imagem_out[28] O
imagem_out[29] O
imagem_out[2] O
imagem_out[30] O
imagem_out[31] O
imagem_out[3] O
imagem_out[4] O
imagem_out[5] O
imagem_out[6] O
imagem_out[7] O
imagem_out[8] O
imagem_out[9] O

*D_NET *1 1.42776e-05
*CONN
*I *1379:A I *D INVx1_ASAP7_75t_R
*I *1639:CON O *D HAxp5_ASAP7_75t_R
*CAP
1 *1379:A 0
2 *1639:CON 4.14928e-06
3 *1:8 4.14928e-06
4 *1:8 *732:10 0
5 *1:8 *1063:8 5.97901e-06
*RES
1 *1639:CON *1:8 38.9053 
2 *1:8 *1379:A 34.4 
*END

*D_NET *2 2.65733e-05
*CONN
*I *1438:A I *D INVx1_ASAP7_75t_R
*I *1644:CON O *D HAxp5_ASAP7_75t_R
*CAP
1 *1438:A 6.35452e-06
2 *1644:CON 5.26926e-06
3 *2:8 1.16238e-05
4 *2:8 *102:8 3.32579e-06
5 *2:8 *333:12 0
*RES
1 *1644:CON *2:8 38.9053 
2 *2:8 *1438:A 37.0741 
*END

*D_NET *3 1.69845e-05
*CONN
*I *1536:A I *D INVx1_ASAP7_75t_R
*I *1702:CON O *D HAxp5_ASAP7_75t_R
*CAP
1 *1536:A 0
2 *1702:CON 6.05392e-06
3 *3:8 6.05392e-06
4 *3:8 *79:8 0
5 *3:8 *277:40 4.87663e-06
*RES
1 *1702:CON *3:8 38.9053 
2 *3:8 *1536:A 34.4 
*END

*D_NET *4 0.000115667
*CONN
*I *1517:A I *D INVx1_ASAP7_75t_R
*I *1647:CON O *D HAxp5_ASAP7_75t_R
*CAP
1 *1517:A 0
2 *1647:CON 8.62789e-06
3 *4:14 4.65343e-05
4 *4:8 5.51622e-05
5 *4:14 *598:10 5.34278e-06
6 *4:14 *692:14 0
*RES
1 *1647:CON *4:8 38.1438 
2 *4:8 *4:14 45.7761 
3 *4:14 *1517:A 17.2 
*END

*D_NET *5 2.30419e-05
*CONN
*I *1122:A I *D INVx1_ASAP7_75t_R
*I *1620:CON O *D HAxp5_ASAP7_75t_R
*CAP
1 *1122:A 0
2 *1620:CON 3.15893e-06
3 *5:8 3.15893e-06
4 *5:8 *785:14 1.34828e-05
5 *5:8 *793:8 3.24127e-06
*RES
1 *1620:CON *5:8 38.9053 
2 *5:8 *1122:A 34.4 
*END

*D_NET *6 3.77499e-05
*CONN
*I *1252:A I *D INVx1_ASAP7_75t_R
*I *1637:CON O *D HAxp5_ASAP7_75t_R
*CAP
1 *1252:A 0
2 *1637:CON 6.92789e-06
3 *6:8 6.92789e-06
4 *6:8 *83:17 0
5 *6:8 *263:10 2.38942e-05
6 *6:8 *1019:48 0
*RES
1 *1637:CON *6:8 42.2843 
2 *6:8 *1252:A 34.4 
*END

*D_NET *7 1.39375e-05
*CONN
*I *1193:A I *D INVx1_ASAP7_75t_R
*I *1633:CON O *D HAxp5_ASAP7_75t_R
*CAP
1 *1193:A 4.29738e-06
2 *1633:CON 4.29738e-06
3 *1193:A *749:27 5.34278e-06
*RES
1 *1633:CON *1193:A 38.1438 
*END

*D_NET *8 1.33267e-05
*CONN
*I *1152:A I *D INVx1_ASAP7_75t_R
*I *1616:CON O *D HAxp5_ASAP7_75t_R
*CAP
1 *1152:A 6.66336e-06
2 *1616:CON 6.66336e-06
*RES
1 *1616:CON *1152:A 38.6786 
*END

*D_NET *9 2.27604e-05
*CONN
*I *1477:A I *D INVx1_ASAP7_75t_R
*I *1693:CON O *D HAxp5_ASAP7_75t_R
*CAP
1 *1477:A 0
2 *1693:CON 4.34715e-06
3 *9:8 4.34715e-06
4 *9:8 *249:25 1.34329e-05
5 *9:8 *328:35 6.33206e-07
6 *9:8 *1000:10 0
*RES
1 *1693:CON *9:8 38.9053 
2 *9:8 *1477:A 34.4 
*END

*D_NET *10 4.64086e-05
*CONN
*I *1278:A I *D INVx1_ASAP7_75t_R
*I *1666:CON O *D HAxp5_ASAP7_75t_R
*CAP
1 *1278:A 3.28099e-06
2 *1666:CON 1.59822e-05
3 *10:8 1.92632e-05
4 *1278:A *445:10 2.20493e-06
5 *10:8 *161:8 7.84037e-07
6 *10:8 *1052:10 4.89331e-06
*RES
1 *1666:CON *10:8 47.916 
2 *10:8 *1278:A 36.0045 
*END

*D_NET *11 6.57918e-05
*CONN
*I *1223:A I *D INVx1_ASAP7_75t_R
*I *1661:CON O *D HAxp5_ASAP7_75t_R
*CAP
1 *1223:A 0
2 *1661:CON 2.64725e-05
3 *11:6 2.64725e-05
4 *11:6 *1661:A 2.30405e-06
5 *11:6 *402:8 4.34114e-06
6 *11:6 *1097:8 6.20163e-06
*RES
1 *1661:CON *11:6 33.7796 
2 *11:6 *1223:A 17.2 
*END

*D_NET *12 4.15832e-05
*CONN
*I *1399:A I *D INVx1_ASAP7_75t_R
*I *1687:CON O *D HAxp5_ASAP7_75t_R
*CAP
1 *1399:A 0
2 *1687:CON 1.02351e-05
3 *12:10 1.02351e-05
4 *12:10 *230:27 1.09067e-06
5 *12:10 *264:10 2.00223e-05
*RES
1 *1687:CON *12:10 42.7625 
2 *12:10 *1399:A 34.4 
*END

*D_NET *13 0.000159252
*CONN
*I *1611:B I *D HAxp5_ASAP7_75t_R
*I *1354:A1 I *D OA21x2_ASAP7_75t_R
*I *1219:Y O *D INVx1_ASAP7_75t_R
*CAP
1 *1611:B 1.07955e-05
2 *1354:A1 3.08747e-06
3 *1219:Y 1.24738e-05
4 *13:14 4.55064e-05
5 *13:8 4.40972e-05
6 *1354:A1 *1019:8 2.35211e-06
7 *1611:B *485:8 0
8 *1611:B *1019:8 1.54556e-05
9 *1611:B *1071:14 2.36401e-05
10 *13:8 *1353:B 0
11 *13:8 *15:8 5.79724e-07
12 *13:8 *485:8 0
13 *13:14 *1354:A2 1.26378e-06
14 *13:14 *198:8 0
*RES
1 *1219:Y *13:8 43.4107 
2 *13:8 *13:14 47.7706 
3 *13:14 *1354:A1 37.1591 
4 *13:14 *1611:B 47.3528 
*END

*D_NET *14 8.46624e-05
*CONN
*I *1254:B I *D OA21x2_ASAP7_75t_R
*I *1611:CON O *D HAxp5_ASAP7_75t_R
*CAP
1 *1254:B 8.88031e-06
2 *1611:CON 6.33876e-06
3 *14:8 1.52191e-05
4 *1254:B *15:12 2.74995e-05
5 *1254:B *176:18 2.0895e-06
6 *1254:B *1071:14 3.90258e-06
7 *14:8 *15:8 0
8 *14:8 *485:8 5.79724e-07
9 *14:8 *1071:14 2.0153e-05
*RES
1 *1611:CON *14:8 41.158 
2 *14:8 *1254:B 42.4224 
*END

*D_NET *15 0.000165248
*CONN
*I *1254:A1 I *D OA21x2_ASAP7_75t_R
*I *1246:A I *D OR2x2_ASAP7_75t_R
*I *1611:SN O *D HAxp5_ASAP7_75t_R
*CAP
1 *1254:A1 0
2 *1246:A 7.77452e-06
3 *1611:SN 6.30645e-06
4 *15:12 3.54357e-05
5 *15:8 3.39677e-05
6 *1246:A *429:14 2.31575e-05
7 *15:8 *485:8 2.83874e-07
8 *15:12 *1246:B 1.44167e-06
9 *15:12 *1353:B 1.36155e-06
10 *15:12 *176:18 1.0391e-06
11 *15:12 *430:10 2.6401e-05
12 *1254:B *15:12 2.74995e-05
13 *13:8 *15:8 5.79724e-07
14 *14:8 *15:8 0
*RES
1 *1611:SN *15:8 38.9053 
2 *15:8 *15:12 38.0582 
3 *15:12 *1246:A 24.1527 
4 *15:12 *1254:A1 17.2 
*END

*D_NET *16 0.000182308
*CONN
*I *1261:A1 I *D OA21x2_ASAP7_75t_R
*I *1612:A I *D HAxp5_ASAP7_75t_R
*I *1218:Y O *D INVx1_ASAP7_75t_R
*CAP
1 *1261:A1 0
2 *1612:A 0
3 *1218:Y 6.50577e-05
4 *16:14 2.30846e-05
5 *16:6 8.81423e-05
6 *16:6 *1261:A2 6.02341e-06
*RES
1 *1218:Y *16:6 40.1975 
2 *16:6 *16:14 45.3516 
3 *16:14 *1612:A 17.2 
4 *16:6 *1261:A1 17.2 
*END

*D_NET *17 0.000115625
*CONN
*I *1251:C I *D AND4x1_ASAP7_75t_R
*I *1612:CON O *D HAxp5_ASAP7_75t_R
*CAP
1 *1251:C 0
2 *1612:CON 4.01892e-05
3 *17:6 4.01892e-05
4 *17:6 *1250:A1 2.90269e-07
5 *17:6 *1250:A2 3.89037e-06
6 *17:6 *18:27 2.03526e-06
7 *17:6 *425:18 1.84236e-05
8 *17:6 *426:10 1.18174e-06
9 *17:6 *427:6 9.425e-06
*RES
1 *1612:CON *17:6 40.1975 
2 *17:6 *1251:C 17.2 
*END

*D_NET *18 0.000145786
*CONN
*I *1250:B I *D AO21x1_ASAP7_75t_R
*I *1245:C I *D OR4x1_ASAP7_75t_R
*I *1612:SN O *D HAxp5_ASAP7_75t_R
*CAP
1 *1250:B 0
2 *1245:C 2.81637e-06
3 *1612:SN 7.5273e-06
4 *18:27 1.14321e-05
5 *18:12 4.55527e-05
6 *18:8 3.88316e-05
7 *1245:C *1245:A 6.02341e-06
8 *18:8 *711:34 0
9 *18:8 *1018:16 2.59962e-07
10 *18:12 *1245:A 8.53214e-06
11 *18:12 *1260:A 7.58265e-07
12 *18:27 *1249:A 1.89838e-05
13 *18:27 *20:12 9.97906e-07
14 *18:27 *426:10 2.03526e-06
15 *17:6 *18:27 2.03526e-06
*RES
1 *1612:SN *18:8 38.9053 
2 *18:8 *18:12 33.7796 
3 *18:12 *1245:C 18.8045 
4 *18:12 *18:27 42.7625 
5 *18:27 *1250:B 17.2 
*END

*D_NET *19 0.000226255
*CONN
*I *1421:A1 I *D OA21x2_ASAP7_75t_R
*I *1613:A I *D HAxp5_ASAP7_75t_R
*I *1217:Y O *D INVx1_ASAP7_75t_R
*CAP
1 *1421:A1 0
2 *1613:A 0
3 *1217:Y 6.79686e-05
4 *19:12 3.05593e-05
5 *19:6 9.8528e-05
6 *19:6 *1421:A2 1.03895e-05
7 *19:6 *223:8 0
8 *19:12 *1416:B 3.68287e-06
9 *19:12 *1421:A2 1.08167e-05
10 *19:12 *140:23 4.30988e-06
11 *19:12 *535:8 0
12 *19:12 *1069:8 0
*RES
1 *1217:Y *19:6 45.0109 
2 *19:6 *19:12 35.5011 
3 *19:12 *1613:A 34.4 
4 *19:6 *1421:A1 17.2 
*END

*D_NET *20 0.000112957
*CONN
*I *1249:B I *D OR2x2_ASAP7_75t_R
*I *1613:CON O *D HAxp5_ASAP7_75t_R
*CAP
1 *1249:B 0
2 *1613:CON 0
3 *20:12 5.12355e-05
4 *20:6 5.12355e-05
5 *20:12 *1249:A 9.66472e-07
6 *20:12 *142:10 9.81412e-07
7 *20:12 *425:10 4.64613e-06
8 *20:12 *709:33 7.84037e-07
9 *20:12 *711:34 2.10986e-06
10 *18:27 *20:12 9.97906e-07
*RES
1 *1613:CON *20:6 34.4 
2 *20:6 *20:12 48.8753 
3 *20:12 *1249:B 17.2 
*END

*D_NET *21 9.07616e-05
*CONN
*I *1245:D I *D OR4x1_ASAP7_75t_R
*I *1613:SN O *D HAxp5_ASAP7_75t_R
*CAP
1 *1245:D 8.76969e-06
2 *1613:SN 1.79409e-05
3 *21:8 2.67105e-05
4 *1245:D *1245:B 1.44167e-06
5 *1245:D *141:8 2.16034e-06
6 *1245:D *142:10 9.5156e-06
7 *1245:D *273:21 0
8 *1245:D *709:33 0
9 *21:8 *1613:B 1.23408e-05
10 *21:8 *142:10 2.12481e-06
11 *21:8 *709:33 9.75735e-06
*RES
1 *1613:SN *21:8 48.8403 
2 *21:8 *1245:D 41.1013 
*END

*D_NET *22 0.000119158
*CONN
*I *1614:A I *D HAxp5_ASAP7_75t_R
*I *1215:Y O *D INVx1_ASAP7_75t_R
*CAP
1 *1614:A 0
2 *1215:Y 1.19839e-05
3 *22:12 2.44497e-05
4 *22:8 3.64336e-05
5 *22:12 *23:8 2.01457e-05
6 *22:12 *24:8 1.67815e-06
7 *22:12 *50:8 0
8 *22:12 *51:21 2.34076e-05
9 *22:12 *356:8 1.05893e-06
10 *22:12 *726:36 0
11 *22:12 *1064:8 0
*RES
1 *1215:Y *22:8 39.2134 
2 *22:8 *22:12 38.6003 
3 *22:12 *1614:A 17.2 
*END

*D_NET *23 4.94965e-05
*CONN
*I *1148:A2 I *D OA21x2_ASAP7_75t_R
*I *1614:CON O *D HAxp5_ASAP7_75t_R
*CAP
1 *1148:A2 2.07189e-06
2 *1614:CON 8.67706e-06
3 *23:8 1.07489e-05
4 *1148:A2 *50:16 1.36155e-06
5 *23:8 *24:8 6.49127e-06
6 *22:12 *23:8 2.01457e-05
*RES
1 *1614:CON *23:8 44.537 
2 *23:8 *1148:A2 35.4697 
*END

*D_NET *24 7.12418e-05
*CONN
*I *1143:D I *D OR4x1_ASAP7_75t_R
*I *1614:SN O *D HAxp5_ASAP7_75t_R
*CAP
1 *1143:D 1.04166e-05
2 *1614:SN 1.29539e-05
3 *24:8 2.33705e-05
4 *1143:D *1143:B 7.63254e-07
5 *1143:D *51:21 1.40419e-08
6 *24:8 *33:27 0
7 *24:8 *50:16 1.19435e-05
8 *24:8 *51:21 3.61069e-06
9 *24:8 *361:10 0
10 *22:12 *24:8 1.67815e-06
11 *23:8 *24:8 6.49127e-06
*RES
1 *1614:SN *24:8 46.2265 
2 *24:8 *1143:D 38.1438 
*END

*D_NET *25 1.37448e-05
*CONN
*I *1615:A I *D HAxp5_ASAP7_75t_R
*I *1214:Y O *D INVx1_ASAP7_75t_R
*CAP
1 *1615:A 5.00668e-06
2 *1214:Y 5.00668e-06
3 *1615:A *722:23 3.73144e-06
*RES
1 *1214:Y *1615:A 37.0741 
*END

*D_NET *26 0.000119227
*CONN
*I *1145:B I *D OR4x1_ASAP7_75t_R
*I *1615:SN O *D HAxp5_ASAP7_75t_R
*CAP
1 *1145:B 0
2 *1615:SN 1.67353e-05
3 *26:14 2.12392e-05
4 *26:10 3.79745e-05
5 *26:14 *1145:A 1.56183e-05
6 *26:14 *164:18 1.0391e-06
7 *26:14 *356:38 3.68287e-06
8 *26:14 *358:6 2.29378e-05
*RES
1 *1615:SN *26:10 42.6491 
2 *26:10 *26:14 35.9189 
3 *26:14 *1145:B 17.2 
*END

*D_NET *27 1.56387e-05
*CONN
*I *1616:B I *D HAxp5_ASAP7_75t_R
*I *1213:Y O *D INVx1_ASAP7_75t_R
*CAP
1 *1616:B 0
2 *1213:Y 4.5609e-06
3 *27:8 4.5609e-06
4 *27:8 *1065:10 5.37866e-07
5 *27:8 *1102:12 5.97901e-06
*RES
1 *1213:Y *27:8 38.9053 
2 *27:8 *1616:B 34.4 
*END

*D_NET *28 3.00027e-05
*CONN
*I *1617:A I *D HAxp5_ASAP7_75t_R
*I *2020:A I *D BUFx3_ASAP7_75t_R
*I *1212:Y O *D INVx4_ASAP7_75t_R
*CAP
1 *1617:A 6.79108e-06
2 *2020:A 0
3 *1212:Y 0
4 *28:10 5.00696e-06
5 *28:4 1.1798e-05
6 *28:10 *612:40 5.29164e-06
7 *28:10 *635:8 1.11494e-06
*RES
1 *1212:Y *28:4 17.2 
2 *28:4 *28:10 38.9053 
3 *28:10 *2020:A 17.2 
4 *28:4 *1617:A 19.8741 
*END

*D_NET *29 7.66609e-05
*CONN
*I *1527:B I *D OA21x2_ASAP7_75t_R
*I *1617:CON O *D HAxp5_ASAP7_75t_R
*CAP
1 *1527:B 1.20318e-05
2 *1617:CON 1.60369e-05
3 *29:8 2.80686e-05
4 *1527:B *30:10 0
5 *1527:B *131:21 0
6 *1527:B *612:94 9.25072e-06
7 *1527:B *707:46 4.3319e-06
8 *29:8 *30:8 1.52651e-06
9 *29:8 *1116:14 5.41446e-06
*RES
1 *1617:CON *29:8 43.492 
2 *29:8 *1527:B 44.537 
*END

*D_NET *30 0.000186943
*CONN
*I *1527:A1 I *D OA21x2_ASAP7_75t_R
*I *1521:C I *D OR4x1_ASAP7_75t_R
*I *1617:SN O *D HAxp5_ASAP7_75t_R
*CAP
1 *1527:A1 0
2 *1521:C 0
3 *1617:SN 5.83444e-06
4 *30:16 4.50997e-05
5 *30:10 6.29136e-05
6 *30:8 2.36483e-05
7 *30:8 *1116:14 5.85387e-06
8 *30:10 *105:8 1.64764e-06
9 *30:10 *633:12 0
10 *30:10 *696:42 2.68933e-07
11 *30:10 *707:46 3.55524e-06
12 *30:10 *1116:14 4.83862e-06
13 *30:16 *1521:A 6.53938e-06
14 *30:16 *1521:D 1.25483e-05
15 *30:16 *104:8 4.10928e-06
16 *30:16 *104:14 1.89962e-06
17 *30:16 *105:8 1.49137e-06
18 *30:16 *106:8 0
19 *30:16 *633:12 0
20 *30:16 *705:67 5.16782e-06
21 *1527:B *30:10 0
22 *29:8 *30:8 1.52651e-06
*RES
1 *1617:SN *30:8 37.0741 
2 *30:8 *30:10 14.6423 
3 *30:10 *30:16 48.3369 
4 *30:16 *1521:C 17.2 
5 *30:10 *1527:A1 34.4 
*END

*D_NET *31 3.54006e-05
*CONN
*I *1618:B I *D HAxp5_ASAP7_75t_R
*I *1191:Y O *D INVx2_ASAP7_75t_R
*CAP
1 *1618:B 0
2 *1191:Y 1.22656e-05
3 *31:10 1.22656e-05
4 *31:10 *33:10 0
5 *31:10 *729:53 0
6 *31:10 *1036:12 5.34278e-06
7 *31:10 *1036:18 5.52652e-06
*RES
1 *1191:Y *31:10 42.6491 
2 *31:10 *1618:B 34.4 
*END

*D_NET *32 7.55375e-05
*CONN
*I *1149:B I *D OA21x2_ASAP7_75t_R
*I *1618:CON O *D HAxp5_ASAP7_75t_R
*CAP
1 *1149:B 1.81835e-05
2 *1618:CON 1.04238e-05
3 *32:8 2.86072e-05
4 *1149:B *1147:A 5.41446e-06
5 *1149:B *1147:B 6.7842e-07
6 *1149:B *362:10 3.81627e-06
7 *32:8 *1147:B 7.7723e-06
8 *32:8 *292:10 0
9 *32:8 *1117:26 6.41585e-07
*RES
1 *1618:CON *32:8 42.2843 
2 *32:8 *1149:B 46.1661 
*END

*D_NET *33 0.000121364
*CONN
*I *1149:A1 I *D OA21x2_ASAP7_75t_R
*I *1143:B I *D OR4x1_ASAP7_75t_R
*I *1618:SN O *D HAxp5_ASAP7_75t_R
*CAP
1 *1149:A1 0
2 *1143:B 7.86524e-06
3 *1618:SN 1.54076e-05
4 *33:27 7.50303e-06
5 *33:14 3.48145e-05
6 *33:10 3.48538e-05
7 *1143:B *1143:A 7.63254e-06
8 *33:10 *292:10 0
9 *33:10 *729:53 4.97654e-06
10 *33:14 *1143:A 7.54771e-06
11 *33:27 *51:21 0
12 *1143:D *1143:B 7.63254e-07
13 *24:8 *33:27 0
14 *31:10 *33:10 0
*RES
1 *1618:SN *33:10 43.1556 
2 *33:10 *33:14 30.5706 
3 *33:14 *1143:B 24.1527 
4 *33:14 *33:27 40.0317 
5 *33:27 *1149:A1 17.2 
*END

*D_NET *34 1.51651e-05
*CONN
*I *1619:A I *D HAxp5_ASAP7_75t_R
*I *1189:Y O *D INVx1_ASAP7_75t_R
*CAP
1 *1619:A 7.58256e-06
2 *1189:Y 7.58256e-06
*RES
1 *1189:Y *1619:A 37.0741 
*END

*D_NET *35 0.000164064
*CONN
*I *1129:A I *D OR4x1_ASAP7_75t_R
*I *1619:SN O *D HAxp5_ASAP7_75t_R
*CAP
1 *1129:A 0
2 *1619:SN 6.14194e-05
3 *35:12 8.4799e-06
4 *35:6 6.98993e-05
5 *35:6 *1123:A1 0
6 *35:6 *1123:A2 2.52755e-07
7 *35:6 *1165:A 4.33571e-06
8 *35:12 *71:10 8.81102e-06
9 *35:12 *338:14 8.81102e-06
10 *35:12 *795:8 2.05484e-06
11 *35:12 *796:39 0
*RES
1 *1619:SN *35:6 39.1278 
2 *35:6 *35:12 44.537 
3 *35:12 *1129:A 17.2 
*END

*D_NET *36 1.40807e-05
*CONN
*I *1620:B I *D HAxp5_ASAP7_75t_R
*I *1188:Y O *D INVx1_ASAP7_75t_R
*CAP
1 *1620:B 0
2 *1188:Y 6.21426e-06
3 *36:8 6.21426e-06
4 *36:8 *1268:B 6.33206e-07
5 *36:8 *70:8 1.01894e-06
*RES
1 *1188:Y *36:8 38.9053 
2 *36:8 *1620:B 34.4 
*END

*D_NET *37 2.00092e-05
*CONN
*I *1621:A I *D HAxp5_ASAP7_75t_R
*I *1187:Y O *D INVx1_ASAP7_75t_R
*CAP
1 *1621:A 0
2 *1187:Y 8.91777e-06
3 *37:10 8.91777e-06
4 *37:10 *1127:D 0
5 *37:10 *1132:A1 1.04475e-06
6 *37:10 *799:16 1.12894e-06
*RES
1 *1187:Y *37:10 39.3835 
2 *37:10 *1621:A 34.4 
*END

*D_NET *38 0.000133457
*CONN
*I *1134:C I *D AND3x1_ASAP7_75t_R
*I *1621:CON O *D HAxp5_ASAP7_75t_R
*CAP
1 *1134:C 0
2 *1621:CON 2.13855e-05
3 *38:14 1.80175e-05
4 *38:6 3.9403e-05
5 *38:6 *1127:B 2.0779e-05
6 *38:6 *1127:D 2.12062e-05
7 *38:6 *39:8 2.12481e-06
8 *38:6 *269:22 3.68565e-06
9 *38:6 *342:6 3.73144e-06
10 *38:14 *1136:A1 1.12894e-06
11 *38:14 *48:23 0
12 *38:14 *268:14 1.36155e-06
13 *38:14 *348:10 6.33206e-07
14 *38:14 *800:10 0
*RES
1 *1621:CON *38:6 36.9885 
2 *38:6 *38:14 45.6066 
3 *38:14 *1134:C 17.2 
*END

*D_NET *39 7.60196e-05
*CONN
*I *1132:B I *D AO21x1_ASAP7_75t_R
*I *1127:D I *D OR4x1_ASAP7_75t_R
*I *1621:SN O *D HAxp5_ASAP7_75t_R
*CAP
1 *1132:B 8.70252e-06
2 *1127:D 1.31257e-05
3 *1621:SN 3.82519e-06
4 *39:8 2.56534e-05
5 *1127:D *799:16 0
6 *1132:B *48:23 1.38169e-06
7 *1132:B *799:16 0
8 *37:10 *1127:D 0
9 *38:6 *1127:D 2.12062e-05
10 *38:6 *39:8 2.12481e-06
*RES
1 *1621:SN *39:8 36.0045 
2 *39:8 *1127:D 44.7601 
3 *39:8 *1132:B 39.975 
*END

*D_NET *40 0.000116786
*CONN
*I *1622:A I *D HAxp5_ASAP7_75t_R
*I *1186:Y O *D INVx1_ASAP7_75t_R
*CAP
1 *1622:A 0
2 *1186:Y 4.53703e-05
3 *40:6 4.53703e-05
4 *40:6 *438:8 2.60455e-05
*RES
1 *1186:Y *40:6 34.8492 
2 *40:6 *1622:A 17.2 
*END

*D_NET *41 5.02841e-05
*CONN
*I *1131:A I *D OR2x2_ASAP7_75t_R
*I *1622:CON O *D HAxp5_ASAP7_75t_R
*CAP
1 *1131:A 0
2 *1622:CON 0
3 *41:10 1.87658e-05
4 *41:6 1.87658e-05
5 *41:10 *1167:A 0
6 *41:10 *48:12 2.21136e-06
7 *41:10 *790:8 2.79108e-06
8 *41:10 *790:12 7.75e-06
9 *41:10 *797:10 0
*RES
1 *1622:CON *41:6 34.4 
2 *41:6 *41:10 33.5318 
3 *41:10 *1131:A 17.2 
*END

*D_NET *42 0.000155268
*CONN
*I *1127:A I *D OR4x1_ASAP7_75t_R
*I *1622:SN O *D HAxp5_ASAP7_75t_R
*CAP
1 *1127:A 0
2 *1622:SN 3.72997e-06
3 *42:18 8.67232e-06
4 *42:12 6.99499e-05
5 *42:8 6.50076e-05
6 *42:8 *1167:A 0
7 *42:8 *790:12 4.10928e-06
8 *42:18 *269:22 3.79923e-06
9 *42:18 *800:16 0
*RES
1 *1622:SN *42:8 37.779 
2 *42:8 *42:12 42.3368 
3 *42:12 *42:18 40.0317 
4 *42:18 *1127:A 17.2 
*END

*D_NET *43 0.000227257
*CONN
*I *1623:A I *D HAxp5_ASAP7_75t_R
*I *1307:A1 I *D OA21x2_ASAP7_75t_R
*I *1185:Y O *D INVx1_ASAP7_75t_R
*CAP
1 *1623:A 0
2 *1307:A1 0
3 *1185:Y 0
4 *43:10 1.90921e-05
5 *43:6 0.000100354
6 *43:4 8.1262e-05
7 *43:6 *1623:B 1.27782e-06
8 *43:10 *1623:B 1.67089e-05
9 *43:10 *44:8 0
10 *43:10 *805:32 4.15076e-06
11 *43:10 *1104:8 4.41094e-06
*RES
1 *1185:Y *43:4 17.2 
2 *43:4 *43:6 33.694 
3 *43:6 *43:10 34.6581 
4 *43:10 *1307:A1 34.4 
5 *43:6 *1623:A 17.2 
*END

*D_NET *44 0.000153835
*CONN
*I *1253:B I *D OA21x2_ASAP7_75t_R
*I *1623:CON O *D HAxp5_ASAP7_75t_R
*CAP
1 *1253:B 0
2 *1623:CON 0
3 *44:8 3.49082e-05
4 *44:6 3.49082e-05
5 *44:8 *45:8 4.89331e-06
6 *44:8 *45:23 7.5345e-05
7 *44:8 *84:10 1.07573e-06
8 *44:8 *423:10 0
9 *44:8 *467:8 0
10 *44:8 *1019:48 2.70427e-06
11 *44:8 *1104:8 0
12 *43:10 *44:8 0
*RES
1 *1623:CON *44:6 34.4 
2 *44:6 *44:8 35.4795 
3 *44:8 *1253:B 34.4 
*END

*D_NET *45 0.000190106
*CONN
*I *1253:A1 I *D OA21x2_ASAP7_75t_R
*I *1247:A I *D OR3x1_ASAP7_75t_R
*I *1623:SN O *D HAxp5_ASAP7_75t_R
*CAP
1 *1253:A1 1.78943e-05
2 *1247:A 0
3 *1623:SN 5.67126e-06
4 *45:23 3.33859e-05
5 *45:12 2.02493e-05
6 *45:8 1.04289e-05
7 *1253:A1 *1253:A2 2.6409e-06
8 *45:8 *423:10 2.83874e-07
9 *45:12 *1247:B 1.73158e-06
10 *45:23 *84:10 1.75818e-05
11 *44:8 *45:8 4.89331e-06
12 *44:8 *45:23 7.5345e-05
*RES
1 *1623:SN *45:8 38.9053 
2 *45:8 *45:12 19.3393 
3 *45:12 *1247:A 17.2 
4 *45:12 *45:23 41.9793 
5 *45:23 *1253:A1 41.8876 
*END

*D_NET *46 2.93241e-05
*CONN
*I *1624:A I *D HAxp5_ASAP7_75t_R
*I *1183:Y O *D INVx1_ASAP7_75t_R
*CAP
1 *1624:A 1.06801e-05
2 *1183:Y 1.06801e-05
3 *1624:A *1624:B 7.96396e-06
*RES
1 *1183:Y *1624:A 39.2134 
*END

*D_NET *47 4.1846e-05
*CONN
*I *1132:A1 I *D AO21x1_ASAP7_75t_R
*I *1624:CON O *D HAxp5_ASAP7_75t_R
*CAP
1 *1132:A1 1.33995e-05
2 *1624:CON 1.33995e-05
3 *1132:A1 *48:12 2.12481e-06
4 *1132:A1 *48:23 1.18774e-05
5 *37:10 *1132:A1 1.04475e-06
*RES
1 *1624:CON *1132:A1 44.5617 
*END

*D_NET *48 0.000212747
*CONN
*I *1127:B I *D OR4x1_ASAP7_75t_R
*I *1131:B I *D OR2x2_ASAP7_75t_R
*I *1624:SN O *D HAxp5_ASAP7_75t_R
*CAP
1 *1127:B 2.28364e-06
2 *1131:B 0
3 *1624:SN 0
4 *48:23 5.69751e-05
5 *48:12 1.63183e-05
6 *48:4 7.10098e-05
7 *1127:B *342:6 2.12062e-05
8 *48:12 *696:8 4.26863e-06
9 *48:12 *797:10 0
10 *48:23 *1132:A2 0
11 *48:23 *347:8 5.0551e-07
12 *48:23 *348:10 0
13 *48:23 *705:8 1.80596e-06
14 *1132:A1 *48:12 2.12481e-06
15 *1132:A1 *48:23 1.18774e-05
16 *1132:B *48:23 1.38169e-06
17 *38:6 *1127:B 2.0779e-05
18 *38:14 *48:23 0
19 *41:10 *48:12 2.21136e-06
*RES
1 *1624:SN *48:4 17.2 
2 *48:4 *48:12 43.7188 
3 *48:12 *1131:B 17.2 
4 *48:4 *48:23 44.9862 
5 *48:23 *1127:B 40.8179 
*END

*D_NET *49 2.18579e-05
*CONN
*I *1625:B I *D HAxp5_ASAP7_75t_R
*I *1182:Y O *D INVx2_ASAP7_75t_R
*CAP
1 *1625:B 8.25755e-06
2 *1182:Y 8.25755e-06
3 *1625:B *1625:A 5.34278e-06
*RES
1 *1182:Y *1625:B 41.3527 
*END

*D_NET *50 8.72759e-05
*CONN
*I *1148:B I *D OA21x2_ASAP7_75t_R
*I *1625:CON O *D HAxp5_ASAP7_75t_R
*CAP
1 *1148:B 0
2 *1625:CON 5.66024e-06
3 *50:16 3.01502e-05
4 *50:8 3.58104e-05
5 *50:8 *726:36 2.34999e-06
6 *50:16 *51:6 0
7 *50:16 *51:21 0
8 *50:16 *361:10 0
9 *1148:A2 *50:16 1.36155e-06
10 *22:12 *50:8 0
11 *24:8 *50:16 1.19435e-05
*RES
1 *1625:CON *50:8 39.4685 
2 *50:8 *50:16 48.5038 
3 *50:16 *1148:B 34.4 
*END

*D_NET *51 7.03658e-05
*CONN
*I *1143:C I *D OR4x1_ASAP7_75t_R
*I *1148:A1 I *D OA21x2_ASAP7_75t_R
*I *1625:SN O *D HAxp5_ASAP7_75t_R
*CAP
1 *1143:C 0
2 *1148:A1 0
3 *1625:SN 5.33201e-06
4 *51:21 1.63347e-05
5 *51:6 2.16667e-05
6 *1143:D *51:21 1.40419e-08
7 *22:12 *51:21 2.34076e-05
8 *24:8 *51:21 3.61069e-06
9 *33:27 *51:21 0
10 *50:16 *51:6 0
11 *50:16 *51:21 0
*RES
1 *1625:SN *51:6 19.3393 
2 *51:6 *1148:A1 17.2 
3 *51:6 *51:21 46.5629 
4 *51:21 *1143:C 17.2 
*END

*D_NET *52 3.28416e-05
*CONN
*I *1626:A I *D HAxp5_ASAP7_75t_R
*I *1181:Y O *D NOR2x1_ASAP7_75t_R
*CAP
1 *1626:A 0
2 *1181:Y 9.70461e-06
3 *52:8 9.70461e-06
4 *52:8 *53:10 1.36556e-06
5 *52:8 *54:12 1.20669e-05
6 *52:8 *631:10 0
*RES
1 *1181:Y *52:8 43.4107 
2 *52:8 *1626:A 34.4 
*END

*D_NET *53 0.000146027
*CONN
*I *1626:B I *D HAxp5_ASAP7_75t_R
*I *2050:A I *D BUFx3_ASAP7_75t_R
*I *1564:Y O *D AO21x2_ASAP7_75t_R
*CAP
1 *1626:B 0
2 *2050:A 0
3 *1564:Y 0
4 *53:16 2.91659e-05
5 *53:10 6.36594e-05
6 *53:6 3.44936e-05
7 *53:10 *54:12 0
8 *53:10 *620:20 0
9 *53:10 *622:10 0
10 *53:10 *631:10 1.47813e-05
11 *53:10 *992:8 0
12 *53:16 *1551:B1 1.04475e-06
13 *53:16 *631:8 1.51653e-06
14 *53:16 *631:10 0
15 *52:8 *53:10 1.36556e-06
*RES
1 *1564:Y *53:6 34.4 
2 *53:6 *53:10 43.1056 
3 *53:10 *53:16 35.1326 
4 *53:16 *2050:A 34.4 
5 *53:10 *1626:B 17.2 
*END

*D_NET *54 0.000109559
*CONN
*I *1541:A I *D AND2x2_ASAP7_75t_R
*I *1626:CON O *D HAxp5_ASAP7_75t_R
*CAP
1 *1541:A 0
2 *1626:CON 0
3 *54:12 3.37365e-05
4 *54:6 3.37365e-05
5 *54:12 *55:8 1.49407e-08
6 *54:12 *621:8 1.96943e-05
7 *54:12 *622:8 9.75735e-06
8 *54:12 *1001:8 5.52807e-07
9 *52:8 *54:12 1.20669e-05
10 *53:10 *54:12 0
*RES
1 *1626:CON *54:6 34.4 
2 *54:6 *54:12 44.8198 
3 *54:12 *1541:A 17.2 
*END

*D_NET *55 7.08933e-05
*CONN
*I *1545:C I *D OR5x1_ASAP7_75t_R
*I *1966:A I *D BUFx3_ASAP7_75t_R
*I *1626:SN O *D HAxp5_ASAP7_75t_R
*CAP
1 *1545:C 1.5696e-05
2 *1966:A 1.11612e-05
3 *1626:SN 8.4556e-06
4 *55:10 2.68572e-05
5 *55:8 8.4556e-06
6 *1545:C *79:22 2.52755e-07
7 *55:8 *276:8 0
8 *54:12 *55:8 1.49407e-08
*RES
1 *1626:SN *55:8 38.9053 
2 *55:8 *55:10 17.2 
3 *55:10 *1966:A 23.0831 
4 *55:10 *1545:C 26.292 
*END

*D_NET *56 3.16874e-05
*CONN
*I *1627:A I *D HAxp5_ASAP7_75t_R
*I *1177:Y O *D INVx1_ASAP7_75t_R
*CAP
1 *1627:A 1.15205e-05
2 *1177:Y 1.15205e-05
3 *1627:A *57:10 8.64648e-06
*RES
1 *1177:Y *1627:A 42.9572 
*END

*D_NET *57 4.77107e-05
*CONN
*I *1154:B I *D OA21x2_ASAP7_75t_R
*I *1627:CON O *D HAxp5_ASAP7_75t_R
*CAP
1 *1154:B 0
2 *1627:CON 1.49193e-05
3 *57:10 1.49193e-05
4 *57:10 *58:10 9.22567e-06
5 *57:10 *373:12 0
6 *1627:A *57:10 8.64648e-06
*RES
1 *1627:CON *57:10 47.0411 
2 *57:10 *1154:B 34.4 
*END

*D_NET *58 0.000142234
*CONN
*I *1144:A I *D OR2x2_ASAP7_75t_R
*I *1154:A1 I *D OA21x2_ASAP7_75t_R
*I *1627:SN O *D HAxp5_ASAP7_75t_R
*CAP
1 *1144:A 0
2 *1154:A1 2.69019e-06
3 *1627:SN 1.77841e-05
4 *58:25 2.25895e-05
5 *58:10 4.30637e-05
6 *1154:A1 *1154:A2 1.04475e-06
7 *58:25 *1155:A2 2.66207e-05
8 *58:25 *357:10 1.21211e-05
9 *58:25 *367:10 7.09459e-06
10 *57:10 *58:10 9.22567e-06
*RES
1 *1627:SN *58:10 44.9585 
2 *58:10 *1154:A1 36.0045 
3 *58:10 *58:25 36.3723 
4 *58:25 *1144:A 17.2 
*END

*D_NET *59 8.58955e-05
*CONN
*I *1628:B I *D HAxp5_ASAP7_75t_R
*I *1176:Y O *D NOR2x2_ASAP7_75t_R
*CAP
1 *1628:B 0
2 *1176:Y 0
3 *59:12 3.27149e-05
4 *59:6 3.27149e-05
5 *59:12 *1436:A1 1.33022e-05
6 *59:12 *1437:B 4.83862e-06
7 *59:12 *61:10 5.22376e-07
8 *59:12 *62:10 0
9 *59:12 *181:31 0
10 *59:12 *182:8 0
11 *59:12 *246:8 0
12 *59:12 *247:29 5.79724e-07
13 *59:12 *551:6 5.0551e-07
14 *59:12 *557:86 0
15 *59:12 *564:22 7.17155e-07
*RES
1 *1176:Y *59:6 34.4 
2 *59:6 *59:12 41.3311 
3 *59:12 *1628:B 17.2 
*END

*D_NET *60 0.000218403
*CONN
*I *1628:A I *D HAxp5_ASAP7_75t_R
*I *1455:A2 I *D OA21x2_ASAP7_75t_R
*I *1453:Y O *D AO21x1_ASAP7_75t_R
*CAP
1 *1628:A 0
2 *1455:A2 2.72889e-06
3 *1453:Y 2.18442e-05
4 *60:31 6.29397e-06
5 *60:25 3.38864e-05
6 *60:10 3.99258e-05
7 *60:8 3.14487e-05
8 *1455:A2 *560:18 2.90209e-08
9 *60:8 *1453:A1 5.0551e-07
10 *60:8 *1453:B 2.61188e-06
11 *60:8 *398:24 5.85387e-06
12 *60:8 *398:30 9.30483e-06
13 *60:10 *1927:A 0
14 *60:10 *181:10 0
15 *60:10 *560:10 1.19507e-05
16 *60:10 *560:18 1.67815e-06
17 *60:25 *181:10 0
18 *60:25 *548:10 8.87763e-06
19 *60:25 *556:16 7.67052e-06
20 *60:25 *556:24 0
21 *60:25 *560:10 2.83939e-05
22 *60:31 *61:10 2.46349e-07
23 *60:31 *548:10 5.15215e-06
*RES
1 *1453:Y *60:8 44.5617 
2 *60:8 *60:10 7.88432 
3 *60:10 *1455:A2 35.4697 
4 *60:10 *60:25 35.3594 
5 *60:25 *60:31 38.9053 
6 *60:31 *1628:A 17.2 
*END

*D_NET *61 3.3967e-05
*CONN
*I *1440:B I *D OA21x2_ASAP7_75t_R
*I *1628:CON O *D HAxp5_ASAP7_75t_R
*CAP
1 *1440:B 0
2 *1628:CON 1.38919e-05
3 *61:10 1.38919e-05
4 *61:10 *551:6 5.41446e-06
5 *61:10 *560:10 0
6 *61:10 *564:22 0
7 *59:12 *61:10 5.22376e-07
8 *60:31 *61:10 2.46349e-07
*RES
1 *1628:CON *61:10 43.8888 
2 *61:10 *1440:B 34.4 
*END

*D_NET *62 9.85974e-05
*CONN
*I *1441:A1 I *D OA21x2_ASAP7_75t_R
*I *1437:C I *D OR4x1_ASAP7_75t_R
*I *1628:SN O *D HAxp5_ASAP7_75t_R
*CAP
1 *1441:A1 4.50876e-06
2 *1437:C 8.57863e-06
3 *1628:SN 0
4 *62:10 1.57331e-05
5 *62:4 1.16632e-05
6 *1437:C *1437:B 7.35354e-06
7 *1437:C *181:31 5.85387e-06
8 *1437:C *183:6 1.1364e-05
9 *1437:C *247:29 1.25483e-05
10 *1441:A1 *1441:B 2.0895e-06
11 *62:10 *181:31 1.3879e-05
12 *62:10 *182:8 3.31686e-06
13 *62:10 *560:10 1.70866e-06
14 *59:12 *62:10 0
*RES
1 *1628:SN *62:4 17.2 
2 *62:4 *62:10 41.158 
3 *62:10 *1437:C 27.3617 
4 *62:4 *1441:A1 19.3393 
*END

*D_NET *63 2.1274e-05
*CONN
*I *1629:A I *D HAxp5_ASAP7_75t_R
*I *1173:Y O *D INVx1_ASAP7_75t_R
*CAP
1 *1629:A 8.51578e-06
2 *1173:Y 8.51578e-06
3 *1629:A *1197:A 1.8214e-06
4 *1629:A *65:6 2.421e-06
*RES
1 *1173:Y *1629:A 38.1438 
*END

*D_NET *64 0.000155778
*CONN
*I *1205:A I *D AND3x1_ASAP7_75t_R
*I *1629:CON O *D HAxp5_ASAP7_75t_R
*CAP
1 *1205:A 1.73215e-05
2 *1629:CON 1.19161e-05
3 *64:8 2.92375e-05
4 *1205:A *394:14 3.89037e-06
5 *1205:A *399:20 1.00467e-06
6 *1205:A *765:20 5.24059e-07
7 *1205:A *1037:19 7.86089e-07
8 *64:8 *65:6 3.60725e-05
9 *64:8 *283:6 5.07197e-05
10 *64:8 *283:12 2.12276e-06
11 *64:8 *756:31 2.18318e-06
*RES
1 *1629:CON *64:8 47.7706 
2 *64:8 *1205:A 44.4803 
*END

*D_NET *65 0.00018467
*CONN
*I *1203:B I *D AO21x1_ASAP7_75t_R
*I *1197:A I *D OR4x1_ASAP7_75t_R
*I *1629:SN O *D HAxp5_ASAP7_75t_R
*CAP
1 *1203:B 0
2 *1197:A 1.31513e-05
3 *1629:SN 1.84197e-05
4 *65:21 1.46162e-05
5 *65:6 4.61873e-05
6 *1197:A *1173:A 1.41576e-05
7 *1197:A *283:12 9.5501e-06
8 *65:6 *1629:B 2.50666e-06
9 *65:6 *283:12 1.06154e-05
10 *65:6 *756:31 4.20954e-06
11 *65:21 *283:27 0
12 *65:21 *542:12 1.70317e-06
13 *65:21 *721:24 9.23796e-06
14 *1629:A *1197:A 1.8214e-06
15 *1629:A *65:6 2.421e-06
16 *64:8 *65:6 3.60725e-05
*RES
1 *1629:SN *65:6 32.7099 
2 *65:6 *1197:A 26.8269 
3 *65:6 *65:21 43.8888 
4 *65:21 *1203:B 17.2 
*END

*D_NET *66 9.22707e-05
*CONN
*I *1630:A I *D HAxp5_ASAP7_75t_R
*I *1169:Y O *D NOR2x1_ASAP7_75t_R
*CAP
1 *1630:A 0
2 *1169:Y 0
3 *66:10 2.11081e-05
4 *66:6 2.11081e-05
5 *66:10 *1552:C 0
6 *66:10 *1659:A 4.03769e-05
7 *66:10 *144:20 2.77657e-06
8 *66:10 *146:10 4.10928e-06
9 *66:10 *630:18 0
10 *66:10 *631:66 0
11 *66:10 *636:10 2.79173e-06
*RES
1 *1169:Y *66:6 34.4 
2 *66:6 *66:10 37.474 
3 *66:10 *1630:A 17.2 
*END

*D_NET *67 0.000127527
*CONN
*I *1630:B I *D HAxp5_ASAP7_75t_R
*I *2051:A I *D BUFx3_ASAP7_75t_R
*I *1559:Y O *D AO21x2_ASAP7_75t_R
*CAP
1 *1630:B 0
2 *2051:A 2.65863e-05
3 *1559:Y 8.59954e-06
4 *67:12 4.4202e-05
5 *67:8 2.62152e-05
6 *67:8 *612:76 1.5804e-05
7 *67:12 *1212:A 8.96443e-08
8 *67:12 *144:20 2.70427e-06
9 *67:12 *146:10 3.32579e-06
*RES
1 *1559:Y *67:8 39.2134 
2 *67:8 *67:12 31.2792 
3 *67:12 *2051:A 32.1751 
4 *67:12 *1630:B 17.2 
*END

*D_NET *68 2.15062e-05
*CONN
*I *1539:A2 I *D OA21x2_ASAP7_75t_R
*I *1630:CON O *D HAxp5_ASAP7_75t_R
*CAP
1 *1539:A2 0
2 *1630:CON 3.206e-06
3 *68:8 3.206e-06
4 *68:8 *144:20 7.54709e-06
5 *68:8 *145:12 7.54709e-06
*RES
1 *1630:CON *68:8 40.0317 
2 *68:8 *1539:A2 34.4 
*END

*D_NET *69 1.16609e-05
*CONN
*I *1544:A I *D OR3x1_ASAP7_75t_R
*I *1630:SN O *D HAxp5_ASAP7_75t_R
*CAP
1 *1544:A 5.83044e-06
2 *1630:SN 5.83044e-06
*RES
1 *1630:SN *1544:A 38.1438 
*END

*D_NET *70 8.80399e-05
*CONN
*I *1631:A I *D HAxp5_ASAP7_75t_R
*I *1165:Y O *D INVx1_ASAP7_75t_R
*CAP
1 *1631:A 1.52448e-05
2 *1165:Y 1.03346e-05
3 *70:8 2.55794e-05
4 *1631:A *1631:B 6.7842e-07
5 *70:8 *785:14 3.51838e-05
6 *36:8 *70:8 1.01894e-06
*RES
1 *1165:Y *70:8 46.2265 
2 *70:8 *1631:A 40.2831 
*END

*D_NET *71 0.000105128
*CONN
*I *1123:B I *D OA21x2_ASAP7_75t_R
*I *1631:CON O *D HAxp5_ASAP7_75t_R
*CAP
1 *1123:B 0
2 *1631:CON 0
3 *71:10 1.15123e-05
4 *71:6 1.15123e-05
5 *71:10 *296:16 1.64888e-05
6 *71:10 *338:14 1.31444e-06
7 *71:10 *795:8 5.54893e-05
8 *35:12 *71:10 8.81102e-06
*RES
1 *1631:CON *71:6 34.4 
2 *71:6 *71:10 35.7845 
3 *71:10 *1123:B 17.2 
*END

*D_NET *72 0.000139001
*CONN
*I *1123:A2 I *D OA21x2_ASAP7_75t_R
*I *1129:C I *D OR4x1_ASAP7_75t_R
*I *1631:SN O *D HAxp5_ASAP7_75t_R
*CAP
1 *1123:A2 6.98133e-06
2 *1129:C 5.23125e-06
3 *1631:SN 1.99527e-05
4 *72:10 2.07565e-05
5 *72:8 2.84966e-05
6 *1123:A2 *793:8 0
7 *1123:A2 *795:8 1.29793e-05
8 *72:8 *296:16 1.71993e-05
9 *72:10 *344:8 4.62374e-07
10 *72:10 *793:8 0
11 *72:10 *795:8 2.66891e-05
12 *35:6 *1123:A2 2.52755e-07
*RES
1 *1631:SN *72:8 42.4224 
2 *72:8 *72:10 9.01066 
3 *72:10 *1129:C 36.0045 
4 *72:10 *1123:A2 39.975 
*END

*D_NET *73 2.10431e-05
*CONN
*I *1632:A I *D HAxp5_ASAP7_75t_R
*I *1164:Y O *D INVx1_ASAP7_75t_R
*CAP
1 *1632:A 3.43999e-06
2 *1164:Y 6.75696e-06
3 *73:8 1.0197e-05
4 *1632:A *1632:B 6.49184e-07
*RES
1 *1164:Y *73:8 38.9053 
2 *73:8 *1632:A 36.0045 
*END

*D_NET *74 0.000243207
*CONN
*I *1198:A I *D OR4x1_ASAP7_75t_R
*I *1632:SN O *D HAxp5_ASAP7_75t_R
*CAP
1 *1198:A 1.3966e-05
2 *1632:SN 2.81996e-05
3 *74:16 5.54141e-05
4 *74:10 6.96477e-05
5 *1198:A *399:54 3.27358e-05
6 *1198:A *751:23 8.18283e-06
7 *74:10 *1632:B 5.82745e-07
8 *74:10 *758:10 9.43723e-06
9 *74:10 *758:18 6.21979e-06
10 *74:16 *758:10 1.88216e-05
*RES
1 *1632:SN *74:10 47.9407 
2 *74:10 *74:16 49.9099 
3 *74:16 *1198:A 48.4791 
*END

*D_NET *75 1.92569e-05
*CONN
*I *1633:B I *D HAxp5_ASAP7_75t_R
*I *1142:Y O *D INVx1_ASAP7_75t_R
*CAP
1 *1633:B 6.19379e-06
2 *1142:Y 6.19379e-06
3 *1633:B *1059:21 6.86929e-06
*RES
1 *1142:Y *1633:B 39.2134 
*END

*D_NET *76 1.99714e-05
*CONN
*I *1634:A I *D HAxp5_ASAP7_75t_R
*I *1141:Y O *D NOR2x1_ASAP7_75t_R
*CAP
1 *1634:A 3.98682e-06
2 *1141:Y 5.85692e-06
3 *76:8 9.84374e-06
4 *76:8 *631:132 2.83874e-07
*RES
1 *1141:Y *76:8 37.779 
2 *76:8 *1634:A 36.0045 
*END

*D_NET *77 0.000337639
*CONN
*I *1574:A2 I *D OA21x2_ASAP7_75t_R
*I *1634:B I *D HAxp5_ASAP7_75t_R
*I *1572:Y O *D AO21x2_ASAP7_75t_R
*CAP
1 *1574:A2 1.69692e-06
2 *1634:B 0
3 *1572:Y 5.8065e-06
4 *77:49 3.48303e-05
5 *77:34 1.41373e-06
6 *77:28 6.9606e-05
7 *77:16 0.000156115
8 *77:8 6.05959e-05
9 *1574:A2 *642:6 1.82733e-06
10 *77:16 *110:12 0
11 *77:28 *628:90 7.89897e-07
12 *77:28 *628:94 4.17511e-06
13 *77:34 *631:132 7.82377e-07
14 *77:49 *1570:B 0
*RES
1 *1572:Y *77:8 37.8729 
2 *77:8 *77:16 49.1553 
3 *77:16 *77:28 49.7121 
4 *77:28 *77:34 35.4325 
5 *77:34 *1634:B 17.2 
6 *77:16 *77:49 41.3391 
7 *77:49 *1574:A2 35.4697 
*END

*D_NET *78 0.000136263
*CONN
*I *1537:B I *D OA21x2_ASAP7_75t_R
*I *1634:CON O *D HAxp5_ASAP7_75t_R
*CAP
1 *1537:B 0
2 *1634:CON 6.99391e-06
3 *78:12 2.39241e-05
4 *78:8 3.0918e-05
5 *78:8 *1570:A1 1.25483e-05
6 *78:12 *79:8 6.65008e-06
7 *78:12 *232:14 0
8 *78:12 *233:12 3.01234e-05
9 *78:12 *233:23 1.26634e-05
10 *78:12 *234:8 0
11 *78:12 *628:105 4.9137e-07
12 *78:12 *644:10 1.19507e-05
*RES
1 *1634:CON *78:8 39.2134 
2 *78:8 *78:12 41.9793 
3 *78:12 *1537:B 17.2 
*END

*D_NET *79 0.000266836
*CONN
*I *1537:A2 I *D OA21x2_ASAP7_75t_R
*I *1545:B I *D OR5x1_ASAP7_75t_R
*I *1634:SN O *D HAxp5_ASAP7_75t_R
*CAP
1 *1537:A2 1.9964e-06
2 *1545:B 0
3 *1634:SN 0
4 *79:22 1.06468e-05
5 *79:14 3.66312e-05
6 *79:8 5.34894e-05
7 *79:6 2.55087e-05
8 *79:8 *1578:A1 7.36823e-06
9 *79:8 *233:12 1.03765e-05
10 *79:8 *277:40 0
11 *79:8 *628:105 3.97187e-06
12 *79:8 *631:132 0
13 *79:8 *1014:25 0
14 *79:14 *1537:A1 6.92634e-06
15 *79:14 *1588:A 8.146e-06
16 *79:14 *1701:A 3.65131e-06
17 *79:14 *1701:B 5.77892e-05
18 *79:14 *233:12 1.69693e-06
19 *79:14 *277:14 1.62312e-05
20 *79:14 *277:25 0
21 *79:14 *278:10 9.9223e-06
22 *79:22 *1542:B 0
23 *79:22 *276:8 2.99852e-06
24 *79:22 *618:22 2.58225e-06
25 *79:22 *1001:8 0
26 *1545:C *79:22 2.52755e-07
27 *3:8 *79:8 0
28 *78:12 *79:8 6.65008e-06
*RES
1 *1634:SN *79:6 34.4 
2 *79:6 *79:8 21.4003 
3 *79:8 *79:14 47.2352 
4 *79:14 *79:22 41.1013 
5 *79:22 *1545:B 17.2 
6 *79:8 *1537:A2 35.4697 
*END

*D_NET *80 1.36228e-05
*CONN
*I *1635:A I *D HAxp5_ASAP7_75t_R
*I *1121:Y O *D INVx1_ASAP7_75t_R
*CAP
1 *1635:A 6.81142e-06
2 *1121:Y 6.81142e-06
*RES
1 *1121:Y *1635:A 37.0741 
*END

*D_NET *81 5.54427e-05
*CONN
*I *1202:A I *D OR2x2_ASAP7_75t_R
*I *1635:CON O *D HAxp5_ASAP7_75t_R
*CAP
1 *1202:A 7.2943e-06
2 *1635:CON 8.12464e-06
3 *81:8 1.54189e-05
4 *1202:A *1202:B 9.425e-07
5 *81:8 *167:18 2.31186e-05
6 *81:8 *399:128 5.43721e-07
7 *81:8 *755:10 0
*RES
1 *1635:CON *81:8 42.2843 
2 *81:8 *1202:A 38.1438 
*END

*D_NET *82 2.99332e-05
*CONN
*I *1197:C I *D OR4x1_ASAP7_75t_R
*I *1635:SN O *D HAxp5_ASAP7_75t_R
*CAP
1 *1197:C 2.52259e-06
2 *1635:SN 5.13246e-06
3 *82:8 7.65505e-06
4 *82:8 *167:10 8.06923e-06
5 *82:8 *167:18 3.17675e-06
6 *82:8 *283:12 3.37709e-06
*RES
1 *1635:SN *82:8 40.0317 
2 *82:8 *1197:C 35.4697 
*END

*D_NET *83 0.000129536
*CONN
*I *1636:A I *D HAxp5_ASAP7_75t_R
*I *2061:A I *D BUFx3_ASAP7_75t_R
*I *1120:Y O *D INVx1_ASAP7_75t_R
*CAP
1 *1636:A 0
2 *2061:A 0
3 *1120:Y 1.88718e-05
4 *83:17 2.87819e-05
5 *83:6 4.76536e-05
6 *83:6 *2042:A 2.0895e-06
7 *83:17 *1332:A 1.26378e-06
8 *83:17 *263:10 0
9 *83:17 *1019:28 2.39014e-05
10 *83:17 *1019:48 6.97416e-06
11 *6:8 *83:17 0
*RES
1 *1120:Y *83:6 28.9662 
2 *83:6 *2061:A 17.2 
3 *83:6 *83:17 39.638 
4 *83:17 *1636:A 34.4 
*END

*D_NET *84 0.000168886
*CONN
*I *1247:B I *D OR3x1_ASAP7_75t_R
*I *1636:SN O *D HAxp5_ASAP7_75t_R
*CAP
1 *1247:B 3.76811e-06
2 *1636:SN 6.00434e-06
3 *84:10 4.27094e-05
4 *84:8 4.49456e-05
5 *1247:B *1247:C 3.68287e-06
6 *84:8 *1019:26 1.59615e-06
7 *84:10 *1671:B 0
8 *84:10 *2039:A 0
9 *84:10 *174:31 0
10 *84:10 *422:8 0
11 *84:10 *429:14 4.57907e-05
12 *84:10 *429:20 0
13 *84:10 *794:23 0
14 *84:10 *1019:22 0
15 *84:10 *1019:28 0
16 *84:10 *1019:48 0
17 *84:10 *1074:10 0
18 *44:8 *84:10 1.07573e-06
19 *45:12 *1247:B 1.73158e-06
20 *45:23 *84:10 1.75818e-05
*RES
1 *1636:SN *84:8 37.0741 
2 *84:8 *84:10 37.7321 
3 *84:10 *1247:B 37.0741 
*END

*D_NET *85 2.73919e-05
*CONN
*I *1637:B I *D HAxp5_ASAP7_75t_R
*I *1118:Y O *D INVx1_ASAP7_75t_R
*CAP
1 *1637:B 1.36959e-05
2 *1118:Y 1.36959e-05
*RES
1 *1118:Y *1637:B 42.9572 
*END

*D_NET *86 4.48805e-05
*CONN
*I *2019:A I *D BUFx3_ASAP7_75t_R
*I *1638:A I *D HAxp5_ASAP7_75t_R
*I *1216:Y O *D INVx1_ASAP7_75t_R
*CAP
1 *2019:A 1.74609e-05
2 *1638:A 0
3 *1216:Y 4.39959e-06
4 *86:8 2.18605e-05
5 *2019:A *740:25 1.15945e-06
*RES
1 *1216:Y *86:8 37.779 
2 *86:8 *1638:A 34.4 
3 *86:8 *2019:A 46.1415 
*END

*D_NET *87 0.000179182
*CONN
*I *1375:A I *D NOR2x1_ASAP7_75t_R
*I *1638:SN O *D HAxp5_ASAP7_75t_R
*CAP
1 *1375:A 0
2 *1638:SN 3.72814e-05
3 *87:12 5.27018e-06
4 *87:6 4.25516e-05
5 *87:6 *2027:A 4.44181e-05
6 *87:6 *1026:38 1.46869e-05
7 *87:12 *733:21 3.56395e-06
8 *87:12 *742:8 2.32031e-05
9 *87:12 *1026:38 8.20723e-06
*RES
1 *1638:SN *87:6 42.3368 
2 *87:6 *87:12 42.2843 
3 *87:12 *1375:A 17.2 
*END

*D_NET *88 7.41131e-05
*CONN
*I *1639:B I *D HAxp5_ASAP7_75t_R
*I *1190:Y O *D INVx1_ASAP7_75t_R
*CAP
1 *1639:B 1.04513e-05
2 *1190:Y 1.78984e-05
3 *88:8 2.83497e-05
4 *1639:B *740:8 0
5 *1639:B *895:29 1.2264e-05
6 *1639:B *1063:8 4.37267e-07
7 *88:8 *2028:A 4.7125e-06
*RES
1 *1190:Y *88:8 41.3527 
2 *88:8 *1639:B 44.537 
*END

*D_NET *89 7.36576e-05
*CONN
*I *1640:A I *D HAxp5_ASAP7_75t_R
*I *1184:Y O *D INVx3_ASAP7_75t_R
*CAP
1 *1640:A 1.57822e-05
2 *1184:Y 1.57822e-05
3 *1640:A *91:8 1.43637e-05
4 *1640:A *752:6 2.77295e-05
*RES
1 *1184:Y *1640:A 46.701 
*END

*D_NET *90 0.000138504
*CONN
*I *1195:B I *D OA21x2_ASAP7_75t_R
*I *1640:CON O *D HAxp5_ASAP7_75t_R
*CAP
1 *1195:B 0
2 *1640:CON 1.49489e-05
3 *90:16 3.05057e-05
4 *90:8 4.54546e-05
5 *90:8 *386:14 7.85736e-06
6 *90:8 *399:44 1.49407e-08
7 *90:8 *752:14 9.47071e-07
8 *90:8 *752:20 1.21808e-06
9 *90:8 *760:27 2.22925e-05
10 *90:16 *91:23 3.82021e-06
11 *90:16 *386:8 1.14451e-05
*RES
1 *1640:CON *90:8 46.7897 
2 *90:8 *90:16 48.4472 
3 *90:16 *1195:B 34.4 
*END

*D_NET *91 0.00019161
*CONN
*I *1192:B I *D OR2x2_ASAP7_75t_R
*I *1198:C I *D OR4x1_ASAP7_75t_R
*I *1195:A2 I *D OA21x2_ASAP7_75t_R
*I *1640:SN O *D HAxp5_ASAP7_75t_R
*CAP
1 *1192:B 0
2 *1198:C 1.51613e-05
3 *1195:A2 0
4 *1640:SN 3.80043e-05
5 *91:23 3.71137e-05
6 *91:10 3.06535e-05
7 *91:8 4.67054e-05
8 *1198:C *1192:A 6.49184e-07
9 *1198:C *1198:B 8.75221e-07
10 *91:8 *760:16 1.1677e-06
11 *91:23 *1192:A 3.09538e-06
12 *91:23 *399:54 0
13 *1640:A *91:8 1.43637e-05
14 *90:16 *91:23 3.82021e-06
*RES
1 *1640:SN *91:8 48.8403 
2 *91:8 *91:10 5.63166 
3 *91:10 *1195:A2 34.4 
4 *91:10 *91:23 32.2071 
5 *91:23 *1198:C 24.1527 
6 *91:23 *1192:B 17.2 
*END

*D_NET *92 2.06137e-05
*CONN
*I *1641:A I *D HAxp5_ASAP7_75t_R
*I *1178:Y O *D INVx1_ASAP7_75t_R
*CAP
1 *1641:A 0
2 *1178:Y 8.43105e-06
3 *92:10 8.43105e-06
4 *92:10 *1178:A 0
5 *92:10 *734:25 3.75158e-06
*RES
1 *1178:Y *92:10 39.3835 
2 *92:10 *1641:A 34.4 
*END

*D_NET *93 2.27709e-05
*CONN
*I *1381:B I *D OA21x2_ASAP7_75t_R
*I *1641:CON O *D HAxp5_ASAP7_75t_R
*CAP
1 *1381:B 0
2 *1641:CON 7.43276e-06
3 *93:8 7.43276e-06
4 *93:8 *94:25 3.57743e-06
5 *93:8 *179:10 3.56395e-06
6 *93:8 *505:22 7.64042e-07
*RES
1 *1641:CON *93:8 41.158 
2 *93:8 *1381:B 34.4 
*END

*D_NET *94 0.000211398
*CONN
*I *1378:B I *D OR2x2_ASAP7_75t_R
*I *1381:A2 I *D OA21x2_ASAP7_75t_R
*I *2006:A I *D BUFx3_ASAP7_75t_R
*I *1641:SN O *D HAxp5_ASAP7_75t_R
*CAP
1 *1378:B 1.383e-05
2 *1381:A2 0
3 *2006:A 0
4 *1641:SN 0
5 *94:25 2.05836e-05
6 *94:12 2.08351e-05
7 *94:8 4.8693e-05
8 *94:6 2.11043e-05
9 *1378:B *1378:A 2.03526e-06
10 *1378:B *179:10 1.82182e-05
11 *1378:B *503:8 1.51031e-06
12 *1378:B *507:10 0
13 *1378:B *507:23 0
14 *1378:B *1026:8 5.09299e-06
15 *1378:B *1026:16 1.70684e-06
16 *94:8 *179:10 1.76158e-05
17 *94:8 *503:8 4.90042e-07
18 *94:12 *179:10 2.59692e-05
19 *94:12 *499:8 3.05074e-06
20 *94:12 *734:10 0
21 *94:12 *743:10 0
22 *94:12 *1041:8 1.59666e-06
23 *94:25 *1376:A2 2.92255e-06
24 *94:25 *743:10 2.56604e-06
25 *93:8 *94:25 3.57743e-06
*RES
1 *1641:SN *94:6 34.4 
2 *94:6 *94:8 6.75799 
3 *94:8 *94:12 35.7845 
4 *94:12 *2006:A 17.2 
5 *94:8 *94:25 44.1686 
6 *94:25 *1381:A2 34.4 
7 *94:6 *1378:B 47.1544 
*END

*D_NET *95 8.45773e-05
*CONN
*I *1642:B I *D HAxp5_ASAP7_75t_R
*I *1172:Y O *D NOR2x1_ASAP7_75t_R
*CAP
1 *1642:B 6.21918e-06
2 *1172:Y 1.38357e-05
3 *95:8 2.00549e-05
4 *1642:B *97:10 5.85387e-06
5 *1642:B *556:118 1.01102e-06
6 *95:8 *1315:A 1.64764e-06
7 *95:8 *97:10 2.57853e-05
8 *95:8 *98:8 0
9 *95:8 *553:10 3.40662e-06
10 *95:8 *558:10 6.76305e-06
11 *95:8 *721:24 0
*RES
1 *1172:Y *95:8 48.4791 
2 *95:8 *1642:B 38.1438 
*END

*D_NET *96 7.53161e-05
*CONN
*I *1642:A I *D HAxp5_ASAP7_75t_R
*I *1451:A1 I *D OA21x2_ASAP7_75t_R
*I *1434:Y O *D AO21x1_ASAP7_75t_R
*CAP
1 *1642:A 9.8665e-06
2 *1451:A1 0
3 *1434:Y 2.14215e-05
4 *96:10 3.1288e-05
5 *1642:A *556:124 1.09842e-06
6 *1642:A *558:10 0
7 *1642:A *721:24 0
8 *96:10 *1200:A 4.57952e-06
9 *96:10 *398:112 5.41446e-06
10 *96:10 *556:124 1.64764e-06
11 *96:10 *558:10 0
12 *96:10 *721:24 0
*RES
1 *1434:Y *96:10 48.2241 
2 *96:10 *1451:A1 34.4 
3 *96:10 *1642:A 41.158 
*END

*D_NET *97 8.09931e-05
*CONN
*I *1445:A1 I *D AO21x1_ASAP7_75t_R
*I *1642:CON O *D HAxp5_ASAP7_75t_R
*CAP
1 *1445:A1 0
2 *1642:CON 9.89577e-06
3 *97:10 9.89577e-06
4 *97:10 *556:118 5.51397e-07
5 *97:10 *558:10 2.9011e-05
6 *1642:B *97:10 5.85387e-06
7 *95:8 *97:10 2.57853e-05
*RES
1 *1642:CON *97:10 46.1415 
2 *97:10 *1445:A1 34.4 
*END

*D_NET *98 0.000442941
*CONN
*I *1444:A I *D OR3x1_ASAP7_75t_R
*I *1442:A I *D OR3x1_ASAP7_75t_R
*I *1642:SN O *D HAxp5_ASAP7_75t_R
*CAP
1 *1444:A 0
2 *1442:A 1.63242e-06
3 *1642:SN 1.3943e-06
4 *98:50 6.83328e-06
5 *98:38 0.000141231
6 *98:34 0.000144268
7 *98:20 2.29728e-05
8 *98:16 4.27109e-05
9 *98:8 2.93695e-05
10 *1442:A *101:22 5.0551e-07
11 *98:8 *721:24 6.72417e-07
12 *98:16 *239:30 1.49407e-08
13 *98:16 *553:18 9.828e-06
14 *98:16 *554:18 3.12441e-06
15 *98:20 *1444:B 3.33273e-05
16 *98:20 *1444:C 2.90209e-08
17 *98:34 *1444:C 1.70708e-06
18 *98:34 *556:16 1.85657e-06
19 *98:38 *872:25 0
20 *98:50 *547:12 1.35259e-06
21 *98:50 *556:66 1.10955e-07
22 *95:8 *98:8 0
*RES
1 *1642:SN *98:8 35.2447 
2 *98:8 *98:16 46.5437 
3 *98:16 *98:20 28.9662 
4 *98:20 *98:34 49.4866 
5 *98:34 *98:38 40.6909 
6 *98:38 *98:50 42.6923 
7 *98:50 *1442:A 35.4697 
8 *98:20 *1444:A 17.2 
*END

*D_NET *99 9.75442e-05
*CONN
*I *1163:A I *D INVx1_ASAP7_75t_R
*I *1643:A I *D HAxp5_ASAP7_75t_R
*I *1162:Y O *D NOR2x1_ASAP7_75t_R
*CAP
1 *1163:A 3.80741e-06
2 *1643:A 0
3 *1162:Y 5.65967e-06
4 *99:16 3.73206e-05
5 *99:10 4.1128e-05
6 *99:8 5.65967e-06
7 *99:8 *1088:12 0
8 *99:16 *1211:A 2.38727e-07
9 *99:16 *100:21 2.25464e-07
10 *99:16 *102:8 0
11 *99:16 *569:14 3.50469e-06
*RES
1 *1162:Y *99:8 37.779 
2 *99:8 *99:10 17.2 
3 *99:10 *99:16 40.5979 
4 *99:16 *1643:A 34.4 
5 *99:10 *1163:A 18.8045 
*END

*D_NET *100 0.000205108
*CONN
*I *1211:A I *D INVx1_ASAP7_75t_R
*I *1473:A1 I *D OA21x2_ASAP7_75t_R
*I *1643:B I *D HAxp5_ASAP7_75t_R
*I *1210:Y O *D AO21x1_ASAP7_75t_R
*CAP
1 *1211:A 5.76573e-06
2 *1473:A1 7.07164e-06
3 *1643:B 4.3634e-06
4 *1210:Y 1.05939e-05
5 *100:27 4.35258e-05
6 *100:21 5.03504e-05
7 *100:10 2.9159e-05
8 *100:8 2.7259e-05
9 *100:8 *1210:A1 5.70436e-07
10 *100:8 *1210:B 3.72098e-06
11 *100:10 *398:72 2.22632e-05
12 *99:16 *1211:A 2.38727e-07
13 *99:16 *100:21 2.25464e-07
*RES
1 *1210:Y *100:8 38.6786 
2 *100:8 *100:10 12.9528 
3 *100:10 *1643:B 37.0741 
4 *100:10 *100:21 5.06849 
5 *100:21 *100:27 46.701 
6 *100:27 *1473:A1 38.9053 
7 *100:21 *1211:A 37.779 
*END

*D_NET *101 0.000225568
*CONN
*I *1442:C I *D OR3x1_ASAP7_75t_R
*I *1643:SN O *D HAxp5_ASAP7_75t_R
*CAP
1 *1442:C 0
2 *1643:SN 6.81575e-05
3 *101:22 2.10116e-05
4 *101:12 3.78711e-05
5 *101:6 8.5017e-05
6 *101:6 *1469:B 1.56713e-06
7 *101:6 *334:10 5.62196e-06
8 *101:12 *334:10 0
9 *101:12 *335:8 0
10 *101:12 *336:12 4.88189e-07
11 *101:12 *336:33 3.05118e-08
12 *101:12 *547:8 7.84772e-07
13 *101:22 *336:12 0
14 *101:22 *336:33 4.51224e-06
15 *101:22 *556:51 0
16 *1442:A *101:22 5.0551e-07
*RES
1 *1643:SN *101:6 46.6154 
2 *101:6 *101:12 46.2265 
3 *101:12 *101:22 45.3516 
4 *101:22 *1442:C 17.2 
*END

*D_NET *102 2.05249e-05
*CONN
*I *1644:A I *D HAxp5_ASAP7_75t_R
*I *1163:Y O *D INVx1_ASAP7_75t_R
*CAP
1 *1644:A 0
2 *1163:Y 8.59954e-06
3 *102:8 8.59954e-06
4 *2:8 *102:8 3.32579e-06
5 *99:16 *102:8 0
*RES
1 *1163:Y *102:8 42.2843 
2 *102:8 *1644:A 34.4 
*END

*D_NET *103 1.84234e-05
*CONN
*I *1644:B I *D HAxp5_ASAP7_75t_R
*I *1211:Y O *D INVx1_ASAP7_75t_R
*CAP
1 *1644:B 9.2117e-06
2 *1211:Y 9.2117e-06
*RES
1 *1211:Y *1644:B 39.7482 
*END

*D_NET *104 0.000147762
*CONN
*I *1645:A I *D HAxp5_ASAP7_75t_R
*I *2021:A I *D BUFx3_ASAP7_75t_R
*I *1166:Y O *D INVx1_ASAP7_75t_R
*CAP
1 *1645:A 2.79718e-06
2 *2021:A 0
3 *1166:Y 2.96114e-06
4 *104:14 4.10453e-05
5 *104:8 4.68036e-05
6 *104:8 *633:12 1.67815e-06
7 *104:14 *612:48 3.70102e-05
8 *104:14 *633:12 5.79724e-07
9 *104:14 *1056:10 8.87763e-06
10 *30:16 *104:8 4.10928e-06
11 *30:16 *104:14 1.89962e-06
*RES
1 *1166:Y *104:8 37.779 
2 *104:8 *104:14 46.1656 
3 *104:14 *2021:A 17.2 
4 *104:8 *1645:A 36.0045 
*END

*D_NET *105 1.7647e-05
*CONN
*I *1527:A2 I *D OA21x2_ASAP7_75t_R
*I *1645:CON O *D HAxp5_ASAP7_75t_R
*CAP
1 *1527:A2 0
2 *1645:CON 6.22423e-06
3 *105:8 6.22423e-06
4 *105:8 *705:67 2.05956e-06
5 *30:10 *105:8 1.64764e-06
6 *30:16 *105:8 1.49137e-06
*RES
1 *1645:CON *105:8 40.0317 
2 *105:8 *1527:A2 34.4 
*END

*D_NET *106 8.5511e-05
*CONN
*I *1521:A I *D OR4x1_ASAP7_75t_R
*I *1645:SN O *D HAxp5_ASAP7_75t_R
*CAP
1 *1521:A 1.12555e-05
2 *1645:SN 1.20243e-05
3 *106:8 2.32797e-05
4 *1521:A *1521:B 3.05302e-06
5 *1521:A *1521:D 1.25483e-05
6 *1521:A *602:10 1.62312e-05
7 *106:8 *2072:A 5.79724e-07
8 *30:16 *1521:A 6.53938e-06
9 *30:16 *106:8 0
*RES
1 *1645:SN *106:8 41.158 
2 *106:8 *1521:A 46.1661 
*END

*D_NET *107 0.000119724
*CONN
*I *1646:A I *D HAxp5_ASAP7_75t_R
*I *2022:A I *D BUFx3_ASAP7_75t_R
*I *1119:Y O *D INVx1_ASAP7_75t_R
*CAP
1 *1646:A 9.18386e-06
2 *2022:A 9.95745e-06
3 *1119:Y 2.99875e-05
4 *107:8 1.91413e-05
5 *107:6 2.99875e-05
6 *1646:A *708:8 1.49407e-08
7 *1646:A *1070:21 0
8 *2022:A *862:27 3.47867e-06
9 *2022:A *1057:8 0
10 *2022:A *1070:8 0
11 *2022:A *1070:21 0
12 *107:6 *643:10 2.28976e-06
13 *107:6 *692:14 3.13426e-06
14 *107:6 *1015:50 1.25483e-05
*RES
1 *1119:Y *107:6 36.4537 
2 *107:6 *107:8 17.2 
3 *107:8 *2022:A 42.2843 
4 *107:8 *1646:A 40.0317 
*END

*D_NET *108 0.000113695
*CONN
*I *1523:B I *D OR4x1_ASAP7_75t_R
*I *1646:SN O *D HAxp5_ASAP7_75t_R
*CAP
1 *1523:B 0
2 *1646:SN 9.39762e-06
3 *108:12 2.05006e-05
4 *108:8 2.98982e-05
5 *108:8 *277:10 0
6 *108:12 *136:23 5.38988e-05
*RES
1 *1646:SN *108:8 41.158 
2 *108:8 *108:12 35.384 
3 *108:12 *1523:B 17.2 
*END

*D_NET *109 2.08199e-05
*CONN
*I *1647:B I *D HAxp5_ASAP7_75t_R
*I *1276:Y O *D INVx1_ASAP7_75t_R
*CAP
1 *1647:B 1.041e-05
2 *1276:Y 1.041e-05
*RES
1 *1276:Y *1647:B 40.8179 
*END

*D_NET *110 0.000156064
*CONN
*I *2012:A I *D BUFx3_ASAP7_75t_R
*I *1648:A I *D HAxp5_ASAP7_75t_R
*I *1351:Y O *D INVx1_ASAP7_75t_R
*CAP
1 *2012:A 0
2 *1648:A 9.14496e-06
3 *1351:Y 1.18706e-06
4 *110:16 9.79361e-06
5 *110:12 6.66611e-05
6 *110:8 6.71995e-05
7 *1648:A *111:8 0
8 *1648:A *112:10 2.05045e-06
9 *1648:A *277:10 0
10 *110:12 *857:27 2.77387e-08
11 *110:16 *111:8 0
12 *77:16 *110:12 0
*RES
1 *1351:Y *110:8 35.057 
2 *110:8 *110:12 39.0602 
3 *110:12 *110:16 17.857 
4 *110:16 *1648:A 41.158 
5 *110:16 *2012:A 34.4 
*END

*D_NET *111 6.41176e-05
*CONN
*I *1519:A2 I *D OA21x2_ASAP7_75t_R
*I *1648:CON O *D HAxp5_ASAP7_75t_R
*CAP
1 *1519:A2 1.55081e-05
2 *1648:CON 1.22484e-05
3 *111:8 2.77566e-05
4 *1519:A2 *1519:B 6.92634e-06
5 *111:8 *112:10 5.49212e-07
6 *111:8 *600:12 1.12894e-06
7 *1648:A *111:8 0
8 *110:16 *111:8 0
*RES
1 *1648:CON *111:8 43.4107 
2 *111:8 *1519:A2 44.0269 
*END

*D_NET *112 0.000122461
*CONN
*I *1516:B I *D OR2x2_ASAP7_75t_R
*I *1648:SN O *D HAxp5_ASAP7_75t_R
*CAP
1 *1516:B 0
2 *1648:SN 1.0264e-05
3 *112:14 4.53345e-05
4 *112:10 5.55985e-05
5 *112:10 *277:10 0
6 *112:10 *600:12 0
7 *112:10 *703:12 8.66473e-06
8 *112:14 *703:12 0
9 *1648:A *112:10 2.05045e-06
10 *111:8 *112:10 5.49212e-07
*RES
1 *1648:SN *112:10 44.2252 
2 *112:10 *112:14 35.9189 
3 *112:14 *1516:B 17.2 
*END

*D_NET *113 9.0227e-05
*CONN
*I *1649:A I *D HAxp5_ASAP7_75t_R
*I *2009:A I *D BUFx3_ASAP7_75t_R
*I *1562:Y O *D INVx1_ASAP7_75t_R
*CAP
1 *1649:A 0
2 *2009:A 0
3 *1562:Y 1.35104e-05
4 *113:25 2.35059e-05
5 *113:12 2.35059e-05
6 *113:10 1.35104e-05
7 *113:10 *1015:148 0
8 *113:25 *637:8 1.55612e-05
9 *113:25 *704:55 6.33206e-07
*RES
1 *1562:Y *113:10 41.5795 
2 *113:10 *113:12 17.2 
3 *113:12 *2009:A 17.2 
4 *113:12 *113:25 49.6302 
5 *113:25 *1649:A 17.2 
*END

*D_NET *114 4.0721e-05
*CONN
*I *1519:B I *D OA21x2_ASAP7_75t_R
*I *1649:CON O *D HAxp5_ASAP7_75t_R
*CAP
1 *1519:B 1.39268e-05
2 *1649:CON 1.39268e-05
3 *1519:B *115:6 5.94108e-06
4 *1519:A2 *1519:B 6.92634e-06
*RES
1 *1649:CON *1519:B 44.5617 
*END

*D_NET *115 5.22035e-05
*CONN
*I *1516:A I *D OR2x2_ASAP7_75t_R
*I *1519:A1 I *D OA21x2_ASAP7_75t_R
*I *1649:SN O *D HAxp5_ASAP7_75t_R
*CAP
1 *1516:A 0
2 *1519:A1 0
3 *1649:SN 8.33316e-06
4 *115:19 1.47981e-05
5 *115:6 2.31312e-05
6 *115:19 *600:12 0
7 *1519:B *115:6 5.94108e-06
*RES
1 *1649:SN *115:6 21.4786 
2 *115:6 *1519:A1 17.2 
3 *115:6 *115:19 44.537 
4 *115:19 *1516:A 17.2 
*END

*D_NET *116 2.599e-05
*CONN
*I *1650:A I *D HAxp5_ASAP7_75t_R
*I *1320:Y O *D INVx1_ASAP7_75t_R
*CAP
1 *1650:A 0
2 *1320:Y 7.57328e-06
3 *116:8 7.57328e-06
4 *116:8 *768:10 1.02103e-05
5 *116:8 *768:16 6.33206e-07
*RES
1 *1320:Y *116:8 42.2843 
2 *116:8 *1650:A 34.4 
*END

*D_NET *117 8.93765e-05
*CONN
*I *1225:A2 I *D OA21x2_ASAP7_75t_R
*I *1650:CON O *D HAxp5_ASAP7_75t_R
*CAP
1 *1225:A2 0
2 *1650:CON 1.83961e-06
3 *117:12 2.17624e-05
4 *117:8 2.3602e-05
5 *117:8 *768:10 8.22087e-06
6 *117:8 *777:16 3.38819e-06
7 *117:12 *1222:B 1.84616e-05
8 *117:12 *118:6 8.35819e-06
9 *117:12 *404:10 3.7437e-06
*RES
1 *1650:CON *117:8 37.2158 
2 *117:8 *117:12 33.7796 
3 *117:12 *1225:A2 17.2 
*END

*D_NET *118 0.000268649
*CONN
*I *1229:B I *D OR4x1_ASAP7_75t_R
*I *1222:B I *D OR2x2_ASAP7_75t_R
*I *1650:SN O *D HAxp5_ASAP7_75t_R
*CAP
1 *1229:B 0
2 *1222:B 5.72549e-05
3 *1650:SN 3.52366e-05
4 *118:21 1.65625e-05
5 *118:6 0.000109054
6 *1222:B *408:16 1.89851e-05
7 *118:21 *127:22 1.52651e-06
8 *118:21 *777:16 3.20927e-06
9 *118:21 *778:10 0
10 *117:12 *1222:B 1.84616e-05
11 *117:12 *118:6 8.35819e-06
*RES
1 *1650:SN *118:6 30.5706 
2 *118:6 *1222:B 41.2671 
3 *118:6 *118:21 44.4803 
4 *118:21 *1229:B 17.2 
*END

*D_NET *119 0.000183264
*CONN
*I *2060:A I *D BUFx3_ASAP7_75t_R
*I *1651:A I *D HAxp5_ASAP7_75t_R
*I *1308:Y O *D INVx1_ASAP7_75t_R
*CAP
1 *2060:A 0
2 *1651:A 4.82754e-06
3 *1308:Y 6.32269e-06
4 *119:21 2.90081e-05
5 *119:8 4.01584e-05
6 *1651:A *121:10 2.45021e-07
7 *1651:A *444:10 7.761e-06
8 *1651:A *684:20 8.06111e-06
9 *119:8 *448:12 1.00854e-05
10 *119:21 *2063:A 0
11 *119:21 *151:8 3.3563e-06
12 *119:21 *152:8 3.56037e-05
13 *119:21 *197:19 1.62574e-05
14 *119:21 *444:10 2.81851e-06
15 *119:21 *444:25 5.60551e-07
16 *119:21 *684:20 1.78698e-05
17 *119:21 *684:33 3.28023e-07
18 *119:21 *1052:10 0
19 *119:21 *1098:10 0
*RES
1 *1308:Y *119:8 37.0741 
2 *119:8 *1651:A 40.5948 
3 *119:8 *119:21 47.0478 
4 *119:21 *2060:A 17.2 
*END

*D_NET *120 5.85059e-05
*CONN
*I *1279:B I *D OA21x2_ASAP7_75t_R
*I *1651:CON O *D HAxp5_ASAP7_75t_R
*CAP
1 *1279:B 0
2 *1651:CON 7.88241e-06
3 *120:8 7.88241e-06
4 *120:8 *1281:A2 9.42079e-06
5 *120:8 *1052:10 3.33203e-05
*RES
1 *1651:CON *120:8 45.6633 
2 *120:8 *1279:B 34.4 
*END

*D_NET *121 7.74941e-05
*CONN
*I *1279:A1 I *D OA21x2_ASAP7_75t_R
*I *1284:A I *D OR4x1_ASAP7_75t_R
*I *1651:SN O *D HAxp5_ASAP7_75t_R
*CAP
1 *1279:A1 0
2 *1284:A 1.09166e-05
3 *1651:SN 2.66564e-05
4 *121:10 3.75731e-05
5 *1284:A *1052:10 4.90042e-07
6 *121:10 *448:12 8.9147e-07
7 *121:10 *1052:10 7.21451e-07
8 *1651:A *121:10 2.45021e-07
*RES
1 *1651:SN *121:10 46.9277 
2 *121:10 *1284:A 40.9596 
3 *121:10 *1279:A1 34.4 
*END

*D_NET *122 3.74246e-05
*CONN
*I *1652:A I *D HAxp5_ASAP7_75t_R
*I *1590:Y O *D INVx1_ASAP7_75t_R
*CAP
1 *1652:A 0
2 *1590:Y 1.06255e-05
3 *122:10 1.06255e-05
4 *122:10 *1231:A 1.12894e-06
5 *122:10 *129:8 5.25794e-06
6 *122:10 *780:23 9.78662e-06
*RES
1 *1590:Y *122:10 41.5228 
2 *122:10 *1652:A 34.4 
*END

*D_NET *123 5.07252e-05
*CONN
*I *1232:A1 I *D AO21x1_ASAP7_75t_R
*I *1652:CON O *D HAxp5_ASAP7_75t_R
*CAP
1 *1232:A1 0
2 *1652:CON 1.296e-05
3 *123:10 1.296e-05
4 *123:10 *124:10 6.53938e-06
5 *123:10 *173:12 1.30409e-05
6 *123:10 *406:14 5.22486e-06
*RES
1 *1652:CON *123:10 44.7884 
2 *123:10 *1232:A1 34.4 
*END

*D_NET *124 0.000133403
*CONN
*I *1227:A I *D OR4x1_ASAP7_75t_R
*I *1231:B I *D OR2x2_ASAP7_75t_R
*I *1652:SN O *D HAxp5_ASAP7_75t_R
*CAP
1 *1227:A 0
2 *1231:B 1.0463e-05
3 *1652:SN 0
4 *124:25 5.49335e-06
5 *124:10 3.0213e-05
6 *124:4 2.52433e-05
7 *124:10 *1231:A 9.93746e-06
8 *124:10 *320:26 6.45454e-06
9 *124:10 *406:14 1.23117e-05
10 *124:25 *171:8 1.98771e-05
11 *124:25 *173:12 6.33206e-06
12 *124:25 *320:26 5.37866e-07
13 *123:10 *124:10 6.53938e-06
*RES
1 *1652:SN *124:4 17.2 
2 *124:4 *124:10 35.3594 
3 *124:10 *1231:B 40.2831 
4 *124:4 *124:25 41.158 
5 *124:25 *1227:A 17.2 
*END

*D_NET *125 8.09701e-05
*CONN
*I *1653:A I *D HAxp5_ASAP7_75t_R
*I *1583:Y O *D INVx1_ASAP7_75t_R
*CAP
1 *1653:A 0
2 *1583:Y 4.63456e-06
3 *125:16 2.67028e-05
4 *125:8 3.13374e-05
5 *125:8 *1660:B 0
6 *125:8 *767:16 3.95845e-06
7 *125:16 *148:12 1.43369e-05
8 *125:16 *767:16 0
9 *125:16 *776:16 0
*RES
1 *1583:Y *125:8 37.779 
2 *125:8 *125:16 49.067 
3 *125:16 *1653:A 34.4 
*END

*D_NET *126 2.12878e-05
*CONN
*I *1224:B I *D OA21x2_ASAP7_75t_R
*I *1653:CON O *D HAxp5_ASAP7_75t_R
*CAP
1 *1224:B 0
2 *1653:CON 9.03773e-06
3 *126:8 9.03773e-06
4 *126:8 *127:8 2.15535e-06
5 *126:8 *403:12 1.05693e-06
6 *126:8 *767:16 0
7 *126:8 *776:10 0
*RES
1 *1653:CON *126:8 41.158 
2 *126:8 *1224:B 34.4 
*END

*D_NET *127 0.000233767
*CONN
*I *1224:A1 I *D OA21x2_ASAP7_75t_R
*I *1229:D I *D OR4x1_ASAP7_75t_R
*I *1653:SN O *D HAxp5_ASAP7_75t_R
*CAP
1 *1224:A1 2.44907e-06
2 *1229:D 0
3 *1653:SN 1.11856e-05
4 *127:22 4.90123e-05
5 *127:16 7.16654e-05
6 *127:8 3.13896e-05
7 *127:8 *767:10 1.25035e-06
8 *127:8 *767:16 2.68933e-07
9 *127:16 *1224:A2 3.90258e-06
10 *127:16 *402:8 2.28836e-05
11 *127:16 *403:8 1.78333e-06
12 *127:16 *776:10 1.46669e-05
13 *127:22 *1320:A 2.20493e-06
14 *127:22 *1653:B 7.63254e-07
15 *127:22 *776:10 1.66587e-05
16 *118:21 *127:22 1.52651e-06
17 *126:8 *127:8 2.15535e-06
*RES
1 *1653:SN *127:8 42.2843 
2 *127:8 *127:16 49.6302 
3 *127:16 *127:22 48.5033 
4 *127:22 *1229:D 17.2 
5 *127:16 *1224:A1 35.4697 
*END

*D_NET *128 3.03299e-05
*CONN
*I *1654:A I *D HAxp5_ASAP7_75t_R
*I *1243:Y O *D INVx1_ASAP7_75t_R
*CAP
1 *1654:A 0
2 *1243:Y 1.50456e-05
3 *128:10 1.50456e-05
4 *128:10 *1243:A 0
5 *128:10 *130:8 2.38727e-07
*RES
1 *1243:Y *128:10 41.5795 
2 *128:10 *1654:A 34.4 
*END

*D_NET *129 8.06468e-05
*CONN
*I *1231:A I *D OR2x2_ASAP7_75t_R
*I *1654:CON O *D HAxp5_ASAP7_75t_R
*CAP
1 *1231:A 1.92041e-05
2 *1654:CON 1.19409e-05
3 *129:8 3.11451e-05
4 *1231:A *320:26 0
5 *1231:A *406:14 1.09067e-06
6 *1231:A *780:23 9.41645e-07
7 *122:10 *1231:A 1.12894e-06
8 *122:10 *129:8 5.25794e-06
9 *124:10 *1231:A 9.93746e-06
*RES
1 *1654:CON *129:8 41.3527 
2 *129:8 *1231:A 49.6055 
*END

*D_NET *130 0.000114779
*CONN
*I *1227:B I *D OR4x1_ASAP7_75t_R
*I *1654:SN O *D HAxp5_ASAP7_75t_R
*CAP
1 *1227:B 8.06435e-06
2 *1654:SN 4.01882e-06
3 *130:14 3.81867e-05
4 *130:8 3.41412e-05
5 *1227:B *171:8 5.37569e-06
6 *130:8 *780:23 9.38684e-06
7 *130:14 *1303:A 2.66797e-07
8 *130:14 *416:16 1.51001e-05
9 *128:10 *130:8 2.38727e-07
*RES
1 *1654:SN *130:8 37.779 
2 *130:8 *130:14 48.8403 
3 *130:14 *1227:B 39.975 
*END

*D_NET *131 7.77051e-05
*CONN
*I *1655:B I *D HAxp5_ASAP7_75t_R
*I *2081:A I *D BUFx3_ASAP7_75t_R
*I *1319:Y O *D INVx3_ASAP7_75t_R
*CAP
1 *1655:B 0
2 *2081:A 0
3 *1319:Y 1.08085e-05
4 *131:21 2.30434e-05
5 *131:10 2.30434e-05
6 *131:8 1.08085e-05
7 *131:8 *315:10 0
8 *131:8 *615:10 1.89962e-06
9 *131:8 *698:10 5.49212e-07
10 *131:21 *612:105 1.00899e-06
11 *131:21 *615:10 1.12894e-06
12 *131:21 *699:8 0
13 *131:21 *1116:6 5.41446e-06
14 *1527:B *131:21 0
*RES
1 *1319:Y *131:8 42.2843 
2 *131:8 *131:10 17.2 
3 *131:10 *2081:A 17.2 
4 *131:10 *131:21 32.8836 
5 *131:21 *1655:B 34.4 
*END

*D_NET *132 6.96073e-05
*CONN
*I *1528:B I *D OAI21x1_ASAP7_75t_R
*I *1655:CON O *D HAxp5_ASAP7_75t_R
*CAP
1 *1528:B 1.37012e-05
2 *1655:CON 1.37012e-05
3 *1528:B *1528:A1 1.95129e-06
4 *1528:B *608:6 4.02536e-05
*RES
1 *1655:CON *1528:B 46.701 
*END

*D_NET *133 0.000119822
*CONN
*I *2007:A I *D BUFx3_ASAP7_75t_R
*I *1521:B I *D OR4x1_ASAP7_75t_R
*I *1655:SN O *D HAxp5_ASAP7_75t_R
*CAP
1 *2007:A 0
2 *1521:B 7.36545e-06
3 *1655:SN 4.31252e-06
4 *133:18 2.18748e-05
5 *133:12 2.22541e-05
6 *133:8 1.20572e-05
7 *133:8 *257:8 0
8 *133:8 *699:8 5.68573e-06
9 *133:8 *1042:8 2.22736e-06
10 *133:12 *1107:8 7.72307e-07
11 *133:18 *2072:A 0
12 *133:18 *259:16 0
13 *133:18 *602:10 0
14 *133:18 *699:8 4.02193e-05
15 *1521:A *1521:B 3.05302e-06
*RES
1 *1655:SN *133:8 38.9053 
2 *133:8 *133:12 20.9438 
3 *133:12 *133:18 47.916 
4 *133:18 *1521:B 20.9438 
5 *133:12 *2007:A 17.2 
*END

*D_NET *134 9.87668e-05
*CONN
*I *1656:A I *D HAxp5_ASAP7_75t_R
*I *2018:A I *D BUFx3_ASAP7_75t_R
*I *1221:Y O *D INVx1_ASAP7_75t_R
*CAP
1 *1656:A 6.54562e-06
2 *2018:A 2.63992e-06
3 *1221:Y 3.21716e-05
4 *134:8 4.13571e-05
5 *1656:A *702:10 8.06799e-07
6 *1656:A *1015:68 5.79724e-07
7 *1656:A *1053:14 0
8 *2018:A *135:10 0
9 *2018:A *1053:14 0
10 *134:8 *1053:8 1.46661e-05
*RES
1 *1221:Y *134:8 46.701 
2 *134:8 *2018:A 36.0895 
3 *134:8 *1656:A 38.9053 
*END

*D_NET *135 5.93233e-05
*CONN
*I *1518:B I *D OA21x2_ASAP7_75t_R
*I *1656:CON O *D HAxp5_ASAP7_75t_R
*CAP
1 *1518:B 0
2 *1656:CON 1.22894e-05
3 *135:10 1.22894e-05
4 *135:10 *1656:B 5.19475e-06
5 *135:10 *136:8 1.36155e-06
6 *135:10 *136:10 4.59903e-06
7 *135:10 *1015:40 1.97656e-05
8 *135:10 *1015:66 1.59615e-06
9 *135:10 *1015:68 2.22736e-06
10 *2018:A *135:10 0
*RES
1 *1656:CON *135:10 47.2111 
2 *135:10 *1518:B 34.4 
*END

*D_NET *136 0.000274167
*CONN
*I *1523:A I *D OR4x1_ASAP7_75t_R
*I *1518:A2 I *D OA21x2_ASAP7_75t_R
*I *1656:SN O *D HAxp5_ASAP7_75t_R
*CAP
1 *1523:A 0
2 *1518:A2 8.9519e-07
3 *1656:SN 2.66085e-05
4 *136:23 2.57586e-05
5 *136:10 3.28725e-05
6 *136:8 3.28271e-05
7 *1518:A2 *277:10 4.96929e-06
8 *1518:A2 *1015:40 4.96929e-06
9 *136:8 *1656:B 3.3547e-05
10 *136:10 *277:10 2.84908e-05
11 *136:10 *1015:40 1.27747e-05
12 *136:10 *1015:68 0
13 *136:23 *1518:A1 1.27782e-06
14 *136:23 *599:10 9.31704e-06
15 *108:12 *136:23 5.38988e-05
16 *135:10 *136:8 1.36155e-06
17 *135:10 *136:10 4.59903e-06
*RES
1 *1656:SN *136:8 47.7706 
2 *136:8 *136:10 10.137 
3 *136:10 *1518:A2 36.0895 
4 *136:10 *136:23 40.1975 
5 *136:23 *1523:A 17.2 
*END

*D_NET *137 0.000171128
*CONN
*I *1657:B I *D HAxp5_ASAP7_75t_R
*I *2010:A I *D BUFx3_ASAP7_75t_R
*I *1474:Y O *D INVx3_ASAP7_75t_R
*CAP
1 *1657:B 2.31821e-05
2 *2010:A 0
3 *1474:Y 4.59901e-06
4 *137:18 2.63998e-05
5 *137:12 3.22724e-05
6 *137:8 3.36538e-05
7 *1657:B *803:10 1.40419e-08
8 *1657:B *803:14 2.35157e-05
9 *137:8 *680:8 7.08455e-07
10 *137:12 *1474:A 1.16945e-06
11 *137:12 *156:8 1.19785e-05
12 *137:12 *803:10 4.43846e-06
13 *137:18 *153:17 7.65452e-06
14 *137:18 *688:12 1.54163e-06
*RES
1 *1474:Y *137:8 37.2158 
2 *137:8 *137:12 34.8492 
3 *137:12 *137:18 37.2158 
4 *137:18 *2010:A 17.2 
5 *137:18 *1657:B 32.7099 
*END

*D_NET *138 2.54448e-05
*CONN
*I *1289:B I *D OAI21x1_ASAP7_75t_R
*I *1657:CON O *D HAxp5_ASAP7_75t_R
*CAP
1 *1289:B 2.53661e-06
2 *1657:CON 5.40507e-06
3 *138:8 7.94168e-06
4 *1289:B *1289:A2 2.8275e-06
5 *138:8 *2076:A 1.52808e-06
6 *138:8 *139:12 5.2059e-06
*RES
1 *1657:CON *138:8 40.0317 
2 *138:8 *1289:B 36.0045 
*END

*D_NET *139 0.000135038
*CONN
*I *2076:A I *D BUFx3_ASAP7_75t_R
*I *1282:C I *D OR4x1_ASAP7_75t_R
*I *1657:SN O *D HAxp5_ASAP7_75t_R
*CAP
1 *2076:A 5.85623e-06
2 *1282:C 0
3 *1657:SN 0
4 *139:12 3.41518e-05
5 *139:6 4.00081e-05
6 *2076:A *803:14 4.18905e-06
7 *139:12 *1282:A 1.21211e-05
8 *139:12 *1291:A1 2.02434e-05
9 *139:12 *449:6 1.59615e-06
10 *139:12 *451:14 3.77777e-06
11 *139:12 *456:10 7.36391e-07
12 *139:12 *457:12 5.62403e-06
13 *139:12 *458:10 0
14 *139:12 *1103:10 0
15 *138:8 *2076:A 1.52808e-06
16 *138:8 *139:12 5.2059e-06
*RES
1 *1657:SN *139:6 34.4 
2 *139:6 *139:12 43.8919 
3 *139:12 *1282:C 17.2 
4 *139:6 *2076:A 38.7636 
*END

*D_NET *140 0.000181636
*CONN
*I *1417:A1 I *D OA21x2_ASAP7_75t_R
*I *1658:A I *D HAxp5_ASAP7_75t_R
*I *1329:Y O *D INVx1_ASAP7_75t_R
*CAP
1 *1417:A1 0
2 *1658:A 0
3 *1329:Y 1.51494e-05
4 *140:23 2.15505e-05
5 *140:12 3.00383e-05
6 *140:6 6.67382e-05
7 *140:6 *783:18 4.75943e-06
8 *140:12 *710:22 5.25794e-06
9 *140:12 *710:28 9.94091e-06
10 *140:12 *783:18 2.11853e-06
11 *140:23 *645:8 0
12 *140:23 *710:22 3.05118e-08
13 *140:23 *1018:64 1.18804e-05
14 *140:23 *1068:8 9.86163e-06
15 *19:12 *140:23 4.30988e-06
*RES
1 *1329:Y *140:6 24.1527 
2 *140:6 *140:12 34.0063 
3 *140:12 *1658:A 34.4 
4 *140:6 *140:23 35.7845 
5 *140:23 *1417:A1 34.4 
*END

*D_NET *141 5.19618e-05
*CONN
*I *1250:A1 I *D AO21x1_ASAP7_75t_R
*I *1658:CON O *D HAxp5_ASAP7_75t_R
*CAP
1 *1250:A1 2.73101e-06
2 *1658:CON 1.64651e-05
3 *141:8 1.91961e-05
4 *141:8 *1249:A 4.7643e-07
5 *141:8 *273:21 0
6 *141:8 *275:8 7.26037e-06
7 *141:8 *426:10 3.38221e-06
8 *1245:D *141:8 2.16034e-06
9 *17:6 *1250:A1 2.90269e-07
*RES
1 *1658:CON *141:8 47.3528 
2 *141:8 *1250:A1 35.4697 
*END

*D_NET *142 0.000137363
*CONN
*I *1249:A I *D OR2x2_ASAP7_75t_R
*I *1245:A I *D OR4x1_ASAP7_75t_R
*I *1658:SN O *D HAxp5_ASAP7_75t_R
*CAP
1 *1249:A 1.62311e-05
2 *1245:A 3.48788e-06
3 *1658:SN 1.6106e-05
4 *142:10 3.5825e-05
5 *1245:A *1245:B 8.15645e-06
6 *1249:A *425:10 3.75158e-06
7 *1249:A *425:18 2.81851e-06
8 *1249:A *426:10 3.38221e-06
9 *1245:C *1245:A 6.02341e-06
10 *1245:D *142:10 9.5156e-06
11 *18:12 *1245:A 8.53214e-06
12 *18:27 *1249:A 1.89838e-05
13 *20:12 *1249:A 9.66472e-07
14 *20:12 *142:10 9.81412e-07
15 *21:8 *142:10 2.12481e-06
16 *141:8 *1249:A 4.7643e-07
*RES
1 *1658:SN *142:10 43.8321 
2 *142:10 *1245:A 38.1438 
3 *142:10 *1249:A 49.6055 
*END

*D_NET *143 0.000144281
*CONN
*I *1659:A I *D HAxp5_ASAP7_75t_R
*I *1265:Y O *D NOR2x1_ASAP7_75t_R
*CAP
1 *1659:A 1.14597e-05
2 *1265:Y 2.37945e-05
3 *143:8 3.52543e-05
4 *1659:A *636:10 3.33954e-05
5 *66:10 *1659:A 4.03769e-05
*RES
1 *1265:Y *143:8 43.492 
2 *143:8 *1659:A 49.5205 
*END

*D_NET *144 0.000294072
*CONN
*I *1659:B I *D HAxp5_ASAP7_75t_R
*I *1557:A2 I *D OA21x2_ASAP7_75t_R
*I *1555:Y O *D AO21x2_ASAP7_75t_R
*CAP
1 *1659:B 0
2 *1557:A2 0
3 *1555:Y 6.02098e-06
4 *144:34 8.47938e-07
5 *144:28 4.20122e-05
6 *144:20 7.6233e-05
7 *144:14 5.82712e-05
8 *144:8 2.92234e-05
9 *144:8 *315:10 0
10 *144:8 *707:46 0
11 *144:14 *612:34 0
12 *144:14 *612:40 0
13 *144:14 *705:36 1.67299e-06
14 *144:14 *706:38 1.09596e-06
15 *144:20 *1561:B 5.41446e-06
16 *144:20 *145:12 4.04894e-06
17 *144:20 *146:10 3.57069e-05
18 *144:28 *628:38 1.75432e-05
19 *144:28 *631:47 4.61286e-07
20 *144:28 *636:10 1.70708e-06
21 *144:34 *634:10 7.84772e-07
22 *66:10 *144:20 2.77657e-06
23 *67:12 *144:20 2.70427e-06
24 *68:8 *144:20 7.54709e-06
*RES
1 *1555:Y *144:8 37.8729 
2 *144:8 *144:14 42.6246 
3 *144:14 *144:20 47.1487 
4 *144:20 *144:28 49.7748 
5 *144:28 *144:34 35.057 
6 *144:34 *1557:A2 17.2 
7 *144:20 *1659:B 17.2 
*END

*D_NET *145 6.09972e-05
*CONN
*I *1539:B I *D OA21x2_ASAP7_75t_R
*I *1659:CON O *D HAxp5_ASAP7_75t_R
*CAP
1 *1539:B 0
2 *1659:CON 4.00038e-06
3 *145:12 1.93943e-05
4 *145:8 2.33947e-05
5 *145:8 *146:10 1.56713e-06
6 *145:8 *146:27 1.04475e-06
7 *145:12 *146:27 0
8 *145:12 *624:8 0
9 *68:8 *145:12 7.54709e-06
10 *144:20 *145:12 4.04894e-06
*RES
1 *1659:CON *145:8 37.0741 
2 *145:8 *145:12 34.6581 
3 *145:12 *1539:B 17.2 
*END

*D_NET *146 0.000138642
*CONN
*I *1544:B I *D OR3x1_ASAP7_75t_R
*I *1539:A1 I *D OA21x2_ASAP7_75t_R
*I *1659:SN O *D HAxp5_ASAP7_75t_R
*CAP
1 *1544:B 0
2 *1539:A1 0
3 *1659:SN 0
4 *146:27 2.65415e-05
5 *146:10 1.99027e-05
6 *146:4 4.64442e-05
7 *66:10 *146:10 4.10928e-06
8 *67:12 *146:10 3.32579e-06
9 *144:20 *146:10 3.57069e-05
10 *145:8 *146:10 1.56713e-06
11 *145:8 *146:27 1.04475e-06
12 *145:12 *146:27 0
*RES
1 *1659:SN *146:4 17.2 
2 *146:4 *146:10 33.8399 
3 *146:10 *1539:A1 34.4 
4 *146:4 *146:27 47.9974 
5 *146:27 *1544:B 17.2 
*END

*D_NET *147 3.0016e-05
*CONN
*I *1660:A I *D HAxp5_ASAP7_75t_R
*I *1309:Y O *D INVx1_ASAP7_75t_R
*CAP
1 *1660:A 1.39487e-05
2 *1309:Y 1.39487e-05
3 *1660:A *1309:A 2.11853e-06
*RES
1 *1309:Y *1660:A 42.9572 
*END

*D_NET *148 0.00026111
*CONN
*I *1229:C I *D OR4x1_ASAP7_75t_R
*I *1660:SN O *D HAxp5_ASAP7_75t_R
*CAP
1 *1229:C 0
2 *1660:SN 6.89637e-06
3 *148:18 8.38393e-06
4 *148:12 8.79878e-05
5 *148:10 7.96039e-05
6 *148:8 6.89637e-06
7 *148:8 *775:10 6.80131e-06
8 *148:8 *1097:12 0
9 *148:12 *149:8 5.17782e-06
10 *148:12 *194:10 3.13426e-06
11 *148:12 *775:16 3.37545e-05
12 *148:12 *1058:6 3.16328e-06
13 *148:18 *194:25 2.80709e-06
14 *148:18 *778:10 2.1664e-06
15 *125:16 *148:12 1.43369e-05
*RES
1 *1660:SN *148:8 40.0317 
2 *148:8 *148:10 17.2 
3 *148:10 *148:12 55.087 
4 *148:12 *148:18 41.158 
5 *148:18 *1229:C 17.2 
*END

*D_NET *149 7.17538e-05
*CONN
*I *1661:B I *D HAxp5_ASAP7_75t_R
*I *1591:Y O *D INVx1_ASAP7_75t_R
*CAP
1 *1661:B 1.04408e-05
2 *1591:Y 7.7248e-06
3 *149:8 1.81656e-05
4 *1661:B *1660:B 1.33022e-05
5 *1661:B *767:10 0
6 *1661:B *767:16 0
7 *1661:B *1097:12 1.69425e-05
8 *148:12 *149:8 5.17782e-06
*RES
1 *1591:Y *149:8 38.1438 
2 *149:8 *1661:B 47.3528 
*END

*D_NET *150 0.000116202
*CONN
*I *1662:A I *D HAxp5_ASAP7_75t_R
*I *2008:A I *D BUFx3_ASAP7_75t_R
*I *1505:Y O *D INVx1_ASAP7_75t_R
*CAP
1 *1662:A 6.526e-06
2 *2008:A 0
3 *1505:Y 0
4 *150:18 1.90196e-05
5 *150:10 4.86365e-05
6 *150:6 2.30909e-05
7 *150:10 *2063:A 0
8 *150:10 *195:12 0
9 *150:10 *459:10 1.90588e-06
10 *150:10 *1046:10 1.53446e-05
11 *150:18 *1017:38 0
12 *150:18 *1046:10 1.67815e-06
*RES
1 *1505:Y *150:6 34.4 
2 *150:6 *150:10 35.7845 
3 *150:10 *150:18 44.8451 
4 *150:18 *2008:A 17.2 
5 *150:10 *1662:A 20.9438 
*END

*D_NET *151 2.44942e-05
*CONN
*I *1280:A2 I *D OA21x2_ASAP7_75t_R
*I *1662:CON O *D HAxp5_ASAP7_75t_R
*CAP
1 *1280:A2 1.32775e-06
2 *1662:CON 7.50962e-06
3 *151:8 8.83737e-06
4 *1280:A2 *196:6 3.46317e-06
5 *119:21 *151:8 3.3563e-06
*RES
1 *1662:CON *151:8 40.0317 
2 *151:8 *1280:A2 35.4697 
*END

*D_NET *152 8.68319e-05
*CONN
*I *1277:B I *D OR2x2_ASAP7_75t_R
*I *1662:SN O *D HAxp5_ASAP7_75t_R
*CAP
1 *1277:B 1.44725e-05
2 *1662:SN 1.02873e-05
3 *152:8 2.47598e-05
4 *1277:B *444:10 0
5 *152:8 *1281:B 0
6 *152:8 *684:33 1.70866e-06
7 *152:8 *1052:10 0
8 *119:21 *152:8 3.56037e-05
*RES
1 *1662:SN *152:8 46.2265 
2 *152:8 *1277:B 39.2134 
*END

*D_NET *153 0.000128988
*CONN
*I *2016:A I *D BUFx3_ASAP7_75t_R
*I *1663:A I *D HAxp5_ASAP7_75t_R
*I *1302:Y O *D INVx1_ASAP7_75t_R
*CAP
1 *2016:A 0
2 *1663:A 0
3 *1302:Y 2.19691e-05
4 *153:17 3.26371e-05
5 *153:6 5.46063e-05
6 *153:17 *154:8 0
7 *153:17 *688:12 4.00967e-06
8 *153:17 *803:10 8.11099e-06
9 *153:17 *1045:8 0
10 *137:18 *153:17 7.65452e-06
*RES
1 *1302:Y *153:6 25.2224 
2 *153:6 *1663:A 17.2 
3 *153:6 *153:17 40.2048 
4 *153:17 *2016:A 34.4 
*END

*D_NET *154 2.4617e-05
*CONN
*I *1288:A1 I *D OA21x2_ASAP7_75t_R
*I *1663:CON O *D HAxp5_ASAP7_75t_R
*CAP
1 *1288:A1 0
2 *1663:CON 9.79569e-06
3 *154:8 9.79569e-06
4 *154:8 *158:10 5.02561e-06
5 *153:17 *154:8 0
*RES
1 *1663:CON *154:8 42.2843 
2 *154:8 *1288:A1 34.4 
*END

*D_NET *155 8.0338e-05
*CONN
*I *1282:A I *D OR4x1_ASAP7_75t_R
*I *1663:SN O *D HAxp5_ASAP7_75t_R
*CAP
1 *1282:A 7.52663e-06
2 *1663:SN 5.97252e-06
3 *155:8 1.34991e-05
4 *1282:A *1282:D 1.25483e-05
5 *1282:A *449:6 6.86929e-06
6 *1282:A *1103:8 1.64387e-05
7 *155:8 *158:10 5.36236e-06
8 *139:12 *1282:A 1.21211e-05
*RES
1 *1663:SN *155:8 38.9053 
2 *155:8 *1282:A 45.0965 
*END

*D_NET *156 0.000149101
*CONN
*I *2079:A I *D BUFx3_ASAP7_75t_R
*I *1664:A I *D HAxp5_ASAP7_75t_R
*I *1324:Y O *D INVx2_ASAP7_75t_R
*CAP
1 *2079:A 0
2 *1664:A 1.15609e-05
3 *1324:Y 1.5817e-05
4 *156:23 2.29857e-05
5 *156:8 5.03636e-05
6 *1664:A *688:12 9.08966e-06
7 *1664:A *957:27 6.70946e-07
8 *156:23 *680:8 0
9 *156:23 *688:12 1.13093e-05
10 *156:23 *688:23 4.16194e-06
11 *156:23 *842:27 3.09718e-06
12 *156:23 *844:25 0
13 *156:23 *1114:6 8.06588e-06
14 *137:12 *156:8 1.19785e-05
*RES
1 *1324:Y *156:8 41.3527 
2 *156:8 *1664:A 43.4107 
3 *156:8 *156:23 36.0359 
4 *156:23 *2079:A 17.2 
*END

*D_NET *157 8.951e-05
*CONN
*I *1288:B I *D OA21x2_ASAP7_75t_R
*I *1664:CON O *D HAxp5_ASAP7_75t_R
*CAP
1 *1288:B 0
2 *1664:CON 3.09923e-05
3 *157:6 3.09923e-05
4 *157:6 *158:6 2.75254e-05
*RES
1 *1664:CON *157:6 34.8492 
2 *157:6 *1288:B 17.2 
*END

*D_NET *158 0.000143273
*CONN
*I *1288:A2 I *D OA21x2_ASAP7_75t_R
*I *1282:D I *D OR4x1_ASAP7_75t_R
*I *1664:SN O *D HAxp5_ASAP7_75t_R
*CAP
1 *1288:A2 0
2 *1282:D 1.48749e-06
3 *1664:SN 9.94681e-06
4 *158:10 2.07351e-05
5 *158:6 2.91945e-05
6 *1282:D *449:6 1.21211e-05
7 *158:10 *1103:10 1.93266e-05
8 *1282:A *1282:D 1.25483e-05
9 *154:8 *158:10 5.02561e-06
10 *155:8 *158:10 5.36236e-06
11 *157:6 *158:6 2.75254e-05
*RES
1 *1664:SN *158:6 24.1527 
2 *158:6 *158:10 35.7845 
3 *158:10 *1282:D 38.1438 
4 *158:6 *1288:A2 17.2 
*END

*D_NET *159 4.97702e-05
*CONN
*I *2017:A I *D BUFx3_ASAP7_75t_R
*I *1665:A I *D HAxp5_ASAP7_75t_R
*I *1295:Y O *D INVx1_ASAP7_75t_R
*CAP
1 *2017:A 1.29029e-05
2 *1665:A 0
3 *1295:Y 6.57385e-06
4 *159:8 1.94768e-05
5 *2017:A *160:10 5.19475e-06
6 *2017:A *449:23 5.62196e-06
*RES
1 *1295:Y *159:8 38.9053 
2 *159:8 *1665:A 34.4 
3 *159:8 *2017:A 44.2252 
*END

*D_NET *160 4.55304e-05
*CONN
*I *1284:B I *D OR4x1_ASAP7_75t_R
*I *1665:SN O *D HAxp5_ASAP7_75t_R
*CAP
1 *1284:B 2.62297e-06
2 *1665:SN 1.32321e-05
3 *160:10 1.58551e-05
4 *160:10 *444:10 8.59498e-06
5 *160:10 *445:10 0
6 *160:10 *449:23 3.05118e-08
7 *2017:A *160:10 5.19475e-06
*RES
1 *1665:SN *160:10 43.8888 
2 *160:10 *1284:B 35.4697 
*END

*D_NET *161 1.26235e-05
*CONN
*I *1666:B I *D HAxp5_ASAP7_75t_R
*I *1343:Y O *D INVx1_ASAP7_75t_R
*CAP
1 *1666:B 0
2 *1343:Y 5.26598e-06
3 *161:8 5.26598e-06
4 *161:8 *1061:18 1.30746e-06
5 *10:8 *161:8 7.84037e-07
*RES
1 *1343:Y *161:8 38.9053 
2 *161:8 *1666:B 34.4 
*END

*D_NET *162 1.31477e-05
*CONN
*I *1667:A I *D HAxp5_ASAP7_75t_R
*I *1581:Y O *D INVx1_ASAP7_75t_R
*CAP
1 *1667:A 0
2 *1581:Y 6.57385e-06
3 *162:8 6.57385e-06
4 *162:8 *262:10 0
5 *162:8 *723:16 0
*RES
1 *1581:Y *162:8 38.9053 
2 *162:8 *1667:A 34.4 
*END

*D_NET *163 5.39573e-05
*CONN
*I *1153:B I *D OA21x2_ASAP7_75t_R
*I *1667:CON O *D HAxp5_ASAP7_75t_R
*CAP
1 *1153:B 0
2 *1667:CON 1.69976e-05
3 *163:10 1.69976e-05
4 *163:10 *1153:A2 3.47607e-06
5 *163:10 *164:10 1.24572e-05
6 *163:10 *164:18 3.47607e-06
7 *163:10 *366:8 5.52807e-07
*RES
1 *1667:CON *163:10 47.0411 
2 *163:10 *1153:B 34.4 
*END

*D_NET *164 0.000133398
*CONN
*I *1153:A2 I *D OA21x2_ASAP7_75t_R
*I *1145:A I *D OR4x1_ASAP7_75t_R
*I *1667:SN O *D HAxp5_ASAP7_75t_R
*CAP
1 *1153:A2 3.36937e-06
2 *1145:A 1.75214e-05
3 *1667:SN 9.79902e-06
4 *164:18 3.25555e-05
5 *164:10 2.82026e-05
6 *1145:A *356:38 3.68287e-06
7 *1145:A *358:6 1.56713e-06
8 *164:18 *366:8 6.33206e-07
9 *26:14 *1145:A 1.56183e-05
10 *26:14 *164:18 1.0391e-06
11 *163:10 *1153:A2 3.47607e-06
12 *163:10 *164:10 1.24572e-05
13 *163:10 *164:18 3.47607e-06
*RES
1 *1667:SN *164:10 40.4531 
2 *164:10 *164:18 42.0293 
3 *164:18 *1145:A 48.3055 
4 *164:10 *1153:A2 37.2158 
*END

*D_NET *165 4.4894e-05
*CONN
*I *1668:A I *D HAxp5_ASAP7_75t_R
*I *1585:Y O *D INVx1_ASAP7_75t_R
*CAP
1 *1668:A 0
2 *1585:Y 1.92276e-05
3 *165:10 1.92276e-05
4 *165:10 *1121:A 4.18905e-06
5 *165:10 *763:20 2.24968e-06
*RES
1 *1585:Y *165:10 49.4638 
2 *165:10 *1668:A 34.4 
*END

*D_NET *166 0.00010989
*CONN
*I *1203:A1 I *D AO21x1_ASAP7_75t_R
*I *1668:CON O *D HAxp5_ASAP7_75t_R
*CAP
1 *1203:A1 0
2 *1668:CON 9.14031e-06
3 *166:14 3.34296e-05
4 *166:8 4.25699e-05
5 *166:8 *167:10 3.09538e-06
6 *166:8 *167:18 6.7842e-07
7 *166:8 *388:10 2.8275e-06
8 *166:14 *1434:A1 0
9 *166:14 *1998:A 5.13209e-07
10 *166:14 *167:10 1.11195e-05
11 *166:14 *388:10 4.09429e-06
12 *166:14 *389:34 1.93482e-06
13 *166:14 *390:8 4.87057e-07
*RES
1 *1668:CON *166:8 40.2831 
2 *166:8 *166:14 38.625 
3 *166:14 *1203:A1 17.2 
*END

*D_NET *167 0.000147005
*CONN
*I *1197:D I *D OR4x1_ASAP7_75t_R
*I *1202:B I *D OR2x2_ASAP7_75t_R
*I *1668:SN O *D HAxp5_ASAP7_75t_R
*CAP
1 *1197:D 0
2 *1202:B 2.91421e-06
3 *1668:SN 2.05353e-05
4 *167:18 2.38429e-05
5 *167:12 2.09287e-05
6 *167:10 2.05353e-05
7 *167:10 *283:12 2.02432e-06
8 *167:10 *388:10 6.02341e-06
9 *167:18 *1635:B 0
10 *1202:A *1202:B 9.425e-07
11 *81:8 *167:18 2.31186e-05
12 *82:8 *167:10 8.06923e-06
13 *82:8 *167:18 3.17675e-06
14 *166:8 *167:10 3.09538e-06
15 *166:8 *167:18 6.7842e-07
16 *166:14 *167:10 1.11195e-05
*RES
1 *1668:SN *167:10 46.4779 
2 *167:10 *167:12 17.2 
3 *167:12 *167:18 34.01 
4 *167:18 *1202:B 36.0045 
5 *167:12 *1197:D 17.2 
*END

*D_NET *168 3.14347e-05
*CONN
*I *1669:A I *D HAxp5_ASAP7_75t_R
*I *1366:Y O *D INVx1_ASAP7_75t_R
*CAP
1 *1669:A 0
2 *1366:Y 6.88125e-06
3 *168:8 6.88125e-06
4 *168:8 *169:8 1.20343e-05
5 *168:8 *170:25 0
6 *168:8 *749:10 7.64042e-07
7 *168:8 *749:21 4.87385e-06
*RES
1 *1366:Y *168:8 42.2843 
2 *168:8 *1669:A 34.4 
*END

*D_NET *169 7.2337e-05
*CONN
*I *1194:B I *D OA21x2_ASAP7_75t_R
*I *1669:CON O *D HAxp5_ASAP7_75t_R
*CAP
1 *1194:B 3.60049e-06
2 *1669:CON 9.5555e-06
3 *169:8 1.3156e-05
4 *1194:B *749:27 6.7842e-07
5 *169:8 *399:88 0
6 *169:8 *749:21 3.33122e-05
7 *169:8 *759:31 0
8 *168:8 *169:8 1.20343e-05
*RES
1 *1669:CON *169:8 45.6633 
2 *169:8 *1194:B 36.0045 
*END

*D_NET *170 0.000129678
*CONN
*I *1198:D I *D OR4x1_ASAP7_75t_R
*I *1194:A2 I *D OA21x2_ASAP7_75t_R
*I *1669:SN O *D HAxp5_ASAP7_75t_R
*CAP
1 *1198:D 0
2 *1194:A2 0
3 *1669:SN 0
4 *170:25 2.01165e-05
5 *170:10 3.96206e-05
6 *170:4 5.97371e-05
7 *170:10 *1468:A 5.82745e-07
8 *170:10 *567:8 0
9 *170:10 *749:21 5.90971e-06
10 *170:25 *399:88 2.68255e-06
11 *170:25 *759:31 1.02842e-06
12 *168:8 *170:25 0
*RES
1 *1669:SN *170:4 17.2 
2 *170:4 *170:10 34.063 
3 *170:10 *1194:A2 34.4 
4 *170:4 *170:25 45.8297 
5 *170:25 *1198:D 17.2 
*END

*D_NET *171 0.000123028
*CONN
*I *1670:A I *D HAxp5_ASAP7_75t_R
*I *1589:Y O *D INVx1_ASAP7_75t_R
*CAP
1 *1670:A 0
2 *1589:Y 0
3 *171:8 3.7221e-05
4 *171:6 3.7221e-05
5 *171:8 *1714:B 0
6 *171:8 *173:12 6.68208e-06
7 *171:8 *173:29 1.66514e-05
8 *171:8 *320:18 0
9 *171:8 *320:26 0
10 *171:8 *406:22 0
11 *171:8 *781:59 0
12 *1227:B *171:8 5.37569e-06
13 *124:25 *171:8 1.98771e-05
*RES
1 *1589:Y *171:6 34.4 
2 *171:6 *171:8 33.2268 
3 *171:8 *1670:A 34.4 
*END

*D_NET *172 6.36114e-05
*CONN
*I *1234:A I *D AND3x1_ASAP7_75t_R
*I *1670:CON O *D HAxp5_ASAP7_75t_R
*CAP
1 *1234:A 1.81374e-05
2 *1670:CON 7.57358e-06
3 *172:8 2.5711e-05
4 *1234:A *319:23 0
5 *1234:A *406:22 7.86436e-06
6 *172:8 *173:6 2.28976e-06
7 *172:8 *406:22 2.03526e-06
*RES
1 *1670:CON *172:8 39.2134 
2 *172:8 *1234:A 46.733 
*END

*D_NET *173 0.000159664
*CONN
*I *1232:B I *D AO21x1_ASAP7_75t_R
*I *1227:C I *D OR4x1_ASAP7_75t_R
*I *1670:SN O *D HAxp5_ASAP7_75t_R
*CAP
1 *1232:B 0
2 *1227:C 3.98682e-06
3 *1670:SN 4.93172e-06
4 *173:29 8.17119e-06
5 *173:12 3.86242e-05
6 *173:6 4.77403e-05
7 *173:12 *320:26 4.1009e-06
8 *173:12 *406:14 4.97342e-06
9 *173:12 *781:59 7.82377e-07
10 *173:29 *406:14 1.35684e-06
11 *123:10 *173:12 1.30409e-05
12 *124:25 *173:12 6.33206e-06
13 *171:8 *173:12 6.68208e-06
14 *171:8 *173:29 1.66514e-05
15 *172:8 *173:6 2.28976e-06
*RES
1 *1670:SN *173:6 19.8741 
2 *173:6 *173:12 42.2874 
3 *173:12 *1227:C 36.0045 
4 *173:6 *173:29 41.1013 
5 *173:29 *1232:B 17.2 
*END

*D_NET *174 0.000314525
*CONN
*I *1323:A1 I *D OA21x2_ASAP7_75t_R
*I *1671:A I *D HAxp5_ASAP7_75t_R
*I *1321:Y O *D INVx1_ASAP7_75t_R
*CAP
1 *1323:A1 0
2 *1671:A 0
3 *1321:Y 4.22776e-06
4 *174:31 1.49194e-05
5 *174:20 1.81372e-05
6 *174:12 8.74565e-05
7 *174:8 5.86276e-05
8 *174:8 *689:8 0
9 *174:8 *728:18 4.10928e-06
10 *174:12 *689:12 9.8885e-05
11 *174:20 *1671:B 1.12894e-06
12 *174:20 *2039:A 4.57952e-06
13 *174:20 *429:14 1.12894e-06
14 *174:20 *689:12 1.2768e-05
15 *174:31 *1019:8 0
16 *174:31 *1019:14 0
17 *174:31 *1074:10 8.33296e-06
18 *174:31 *1112:42 2.24111e-07
19 *84:10 *174:31 0
*RES
1 *1321:Y *174:8 37.779 
2 *174:8 *174:12 47.685 
3 *174:12 *174:20 44.7317 
4 *174:20 *1671:A 17.2 
5 *174:12 *174:31 44.537 
6 *174:31 *1323:A1 17.2 
*END

*D_NET *175 3.29574e-05
*CONN
*I *1254:A2 I *D OA21x2_ASAP7_75t_R
*I *1671:CON O *D HAxp5_ASAP7_75t_R
*CAP
1 *1254:A2 0
2 *1671:CON 1.47407e-05
3 *175:10 1.47407e-05
4 *175:10 *176:18 3.47607e-06
5 *175:10 *429:14 0
6 *175:10 *1019:8 0
*RES
1 *1671:CON *175:10 43.8321 
2 *175:10 *1254:A2 34.4 
*END

*D_NET *176 0.000149492
*CONN
*I *1246:B I *D OR2x2_ASAP7_75t_R
*I *1671:SN O *D HAxp5_ASAP7_75t_R
*CAP
1 *1246:B 1.51054e-05
2 *1671:SN 1.4198e-05
3 *176:18 3.33703e-05
4 *176:10 3.24629e-05
5 *1246:B *429:14 2.29378e-05
6 *176:10 *1671:B 0
7 *176:10 *1019:8 2.33715e-05
8 *176:18 *429:14 0
9 *1254:B *176:18 2.0895e-06
10 *15:12 *1246:B 1.44167e-06
11 *15:12 *176:18 1.0391e-06
12 *175:10 *176:18 3.47607e-06
*RES
1 *1671:SN *176:10 44.9585 
2 *176:10 *176:18 44.1686 
3 *176:18 *1246:B 45.6313 
*END

*D_NET *177 1.16442e-05
*CONN
*I *1672:A I *D HAxp5_ASAP7_75t_R
*I *1594:Y O *D INVx1_ASAP7_75t_R
*CAP
1 *1672:A 5.56089e-06
2 *1594:Y 5.56089e-06
3 *1672:A *505:6 5.22376e-07
4 *1672:A *742:25 0
*RES
1 *1594:Y *1672:A 37.0741 
*END

*D_NET *178 4.5839e-05
*CONN
*I *1381:A1 I *D OA21x2_ASAP7_75t_R
*I *1672:CON O *D HAxp5_ASAP7_75t_R
*CAP
1 *1381:A1 5.33517e-06
2 *1672:CON 6.33675e-06
3 *178:8 1.16719e-05
4 *1381:A1 *1178:A 5.85387e-06
5 *178:8 *500:10 1.1211e-07
6 *178:8 *734:10 1.29259e-05
7 *178:8 *734:25 3.11867e-06
8 *178:8 *742:25 4.84697e-07
*RES
1 *1672:CON *178:8 40.0317 
2 *178:8 *1381:A1 37.0741 
*END

*D_NET *179 0.000139479
*CONN
*I *1374:A I *D NOR2x1_ASAP7_75t_R
*I *1378:A I *D OR2x2_ASAP7_75t_R
*I *1672:SN O *D HAxp5_ASAP7_75t_R
*CAP
1 *1374:A 0
2 *1378:A 3.15963e-06
3 *1672:SN 7.3599e-06
4 *179:10 2.44293e-05
5 *179:6 2.86295e-05
6 *179:10 *500:18 0
7 *179:10 *505:22 7.86436e-06
8 *179:10 *743:10 0
9 *179:10 *1026:16 6.33863e-07
10 *179:10 *1026:24 0
11 *1378:B *1378:A 2.03526e-06
12 *1378:B *179:10 1.82182e-05
13 *93:8 *179:10 3.56395e-06
14 *94:8 *179:10 1.76158e-05
15 *94:12 *179:10 2.59692e-05
*RES
1 *1672:SN *179:6 19.8741 
2 *179:6 *179:10 38.6003 
3 *179:10 *1378:A 36.0045 
4 *179:6 *1374:A 17.2 
*END

*D_NET *180 7.23419e-05
*CONN
*I *1673:A I *D HAxp5_ASAP7_75t_R
*I *1346:Y O *D NOR2x1_ASAP7_75t_R
*CAP
1 *1673:A 4.04448e-06
2 *1346:Y 1.56337e-05
3 *180:8 1.96782e-05
4 *1673:A *183:6 1.23408e-05
5 *180:8 *1441:A2 0
6 *180:8 *1458:A 2.30529e-06
7 *180:8 *482:10 0
8 *180:8 *557:8 6.94376e-06
9 *180:8 *557:22 5.41674e-06
10 *180:8 *560:10 0
11 *180:8 *718:10 5.97901e-06
*RES
1 *1346:Y *180:8 48.4791 
2 *180:8 *1673:A 38.1438 
*END

*D_NET *181 0.000257349
*CONN
*I *1673:B I *D HAxp5_ASAP7_75t_R
*I *1459:A2 I *D OA21x2_ASAP7_75t_R
*I *1457:Y O *D AO21x1_ASAP7_75t_R
*CAP
1 *1673:B 0
2 *1459:A2 0
3 *1457:Y 9.38138e-06
4 *181:31 7.63436e-06
5 *181:23 4.35172e-05
6 *181:10 6.97782e-05
7 *181:8 4.32767e-05
8 *181:10 *1927:A 0
9 *181:10 *398:20 2.41931e-06
10 *181:10 *398:30 4.10928e-06
11 *181:10 *556:16 3.05118e-08
12 *181:10 *559:8 2.1664e-06
13 *181:10 *560:18 3.6269e-06
14 *181:10 *754:18 3.81278e-05
15 *181:10 *763:20 0
16 *181:10 *809:10 0
17 *181:10 *810:10 0
18 *181:23 *1441:A2 0
19 *181:23 *556:16 4.3436e-06
20 *181:23 *560:10 0
21 *181:23 *562:14 9.20479e-06
22 *1437:C *181:31 5.85387e-06
23 *59:12 *181:31 0
24 *60:10 *181:10 0
25 *60:25 *181:10 0
26 *62:10 *181:31 1.3879e-05
*RES
1 *1457:Y *181:8 37.609 
2 *181:8 *181:10 29.8478 
3 *181:10 *1459:A2 34.4 
4 *181:10 *181:23 38.4867 
5 *181:23 *181:31 40.7914 
6 *181:31 *1673:B 17.2 
*END

*D_NET *182 8.22013e-05
*CONN
*I *1436:B I *D OA21x2_ASAP7_75t_R
*I *1673:CON O *D HAxp5_ASAP7_75t_R
*CAP
1 *1436:B 1.09271e-05
2 *1673:CON 1.06194e-05
3 *182:8 2.15465e-05
4 *1436:B *544:8 2.0895e-06
5 *182:8 *560:10 3.37021e-05
6 *59:12 *182:8 0
7 *62:10 *182:8 3.31686e-06
*RES
1 *1673:CON *182:8 45.6633 
2 *182:8 *1436:B 41.3527 
*END

*D_NET *183 0.000147181
*CONN
*I *1436:A1 I *D OA21x2_ASAP7_75t_R
*I *1437:B I *D OR4x1_ASAP7_75t_R
*I *1673:SN O *D HAxp5_ASAP7_75t_R
*CAP
1 *1436:A1 4.16402e-06
2 *1437:B 2.51559e-06
3 *1673:SN 4.12858e-05
4 *183:8 6.67961e-06
5 *183:6 4.12858e-05
6 *1436:A1 *246:8 0
7 *1437:B *247:29 2.05045e-06
8 *1437:C *1437:B 7.35354e-06
9 *1437:C *183:6 1.1364e-05
10 *1673:A *183:6 1.23408e-05
11 *59:12 *1436:A1 1.33022e-05
12 *59:12 *1437:B 4.83862e-06
*RES
1 *1673:SN *183:6 36.9885 
2 *183:6 *183:8 17.2 
3 *183:8 *1437:B 38.2288 
4 *183:8 *1436:A1 38.9053 
*END

*D_NET *184 4.3411e-05
*CONN
*I *1674:B I *D HAxp5_ASAP7_75t_R
*I *1327:Y O *D NOR2x1_ASAP7_75t_R
*CAP
1 *1674:B 2.17055e-05
2 *1327:Y 2.17055e-05
*RES
1 *1327:Y *1674:B 47.7706 
*END

*D_NET *185 0.000360597
*CONN
*I *1674:A I *D HAxp5_ASAP7_75t_R
*I *2080:A I *D BUFx3_ASAP7_75t_R
*I *1476:Y O *D AO21x2_ASAP7_75t_R
*CAP
1 *1674:A 0
2 *2080:A 0
3 *1476:Y 3.21236e-06
4 *185:53 1.03296e-05
5 *185:47 3.57235e-05
6 *185:31 3.82386e-05
7 *185:10 6.06506e-05
8 *185:8 5.10184e-05
9 *185:10 *1502:A1 0
10 *185:10 *1595:A 7.78051e-06
11 *185:10 *189:8 2.02764e-05
12 *185:10 *305:14 8.2174e-07
13 *185:10 *322:29 0
14 *185:10 *440:10 4.4545e-06
15 *185:10 *584:83 1.43261e-05
16 *185:10 *647:8 0
17 *185:10 *821:8 8.23409e-06
18 *185:10 *970:10 0
19 *185:10 *999:18 3.67907e-06
20 *185:10 *1017:22 0
21 *185:10 *1103:10 7.78956e-05
22 *185:31 *322:29 0
23 *185:31 *440:10 6.34091e-06
24 *185:31 *584:38 0
25 *185:47 *486:32 0
26 *185:47 *584:32 0
27 *185:53 *190:14 2.30873e-06
28 *185:53 *441:21 1.53058e-05
*RES
1 *1476:Y *185:8 36.0045 
2 *185:8 *185:10 47.8691 
3 *185:10 *2080:A 34.4 
4 *185:10 *185:31 47.9767 
5 *185:31 *185:47 46.084 
6 *185:47 *185:53 45.9449 
7 *185:53 *1674:A 17.2 
*END

*D_NET *186 7.25356e-05
*CONN
*I *1481:B I *D OA211x2_ASAP7_75t_R
*I *1674:CON O *D HAxp5_ASAP7_75t_R
*CAP
1 *1481:B 5.34663e-06
2 *1674:CON 1.30492e-05
3 *186:8 1.83959e-05
4 *1481:B *187:10 5.66897e-06
5 *1481:B *487:10 2.04071e-05
6 *186:8 *187:10 9.6678e-06
*RES
1 *1674:CON *186:8 44.5617 
2 *186:8 *1481:B 41.158 
*END

*D_NET *187 0.000151722
*CONN
*I *1481:A1 I *D OA211x2_ASAP7_75t_R
*I *1485:B I *D OR3x1_ASAP7_75t_R
*I *1674:SN O *D HAxp5_ASAP7_75t_R
*CAP
1 *1481:A1 2.52259e-06
2 *1485:B 1.71607e-05
3 *1674:SN 1.76425e-05
4 *187:10 3.73258e-05
5 *1485:B *1485:C 6.92634e-06
6 *1485:B *305:25 2.00151e-05
7 *1485:B *487:10 2.22736e-06
8 *1485:B *579:6 1.27802e-05
9 *187:10 *305:25 1.86563e-05
10 *187:10 *487:10 1.12894e-06
11 *1481:B *187:10 5.66897e-06
12 *186:8 *187:10 9.6678e-06
*RES
1 *1674:SN *187:10 48.1107 
2 *187:10 *1485:B 49.1804 
3 *187:10 *1481:A1 35.4697 
*END

*D_NET *188 1.49295e-05
*CONN
*I *1675:A I *D HAxp5_ASAP7_75t_R
*I *1342:Y O *D NOR2x1_ASAP7_75t_R
*CAP
1 *1675:A 0
2 *1342:Y 6.91194e-06
3 *188:8 6.91194e-06
4 *188:8 *322:29 1.10561e-06
5 *188:8 *1115:14 0
*RES
1 *1342:Y *188:8 38.9053 
2 *188:8 *1675:A 34.4 
*END

*D_NET *189 0.000202207
*CONN
*I *1675:B I *D HAxp5_ASAP7_75t_R
*I *1500:A2 I *D OA21x2_ASAP7_75t_R
*I *1498:Y O *D AO21x2_ASAP7_75t_R
*CAP
1 *1675:B 0
2 *1500:A2 5.81085e-06
3 *1498:Y 6.46926e-06
4 *189:23 2.16345e-05
5 *189:12 4.6977e-05
6 *189:8 2.60009e-05
7 *1500:A2 *583:58 1.56713e-06
8 *1500:A2 *818:8 9.9223e-06
9 *189:8 *1017:22 0
10 *189:12 *1596:A1 3.3921e-06
11 *189:23 *1499:A 0
12 *189:23 *1500:B 2.09865e-06
13 *189:23 *322:29 5.8058e-05
14 *189:23 *584:38 0
15 *185:10 *189:8 2.02764e-05
*RES
1 *1498:Y *189:8 41.158 
2 *189:8 *189:12 28.4313 
3 *189:12 *1500:A2 24.1527 
4 *189:12 *189:23 36.9108 
5 *189:23 *1675:B 34.4 
*END

*D_NET *190 0.00015043
*CONN
*I *1480:A2 I *D OA21x2_ASAP7_75t_R
*I *1675:CON O *D HAxp5_ASAP7_75t_R
*CAP
1 *1480:A2 0
2 *1675:CON 1.4172e-05
3 *190:14 1.87885e-05
4 *190:8 3.29605e-05
5 *190:8 *1597:C 1.64387e-05
6 *190:8 *191:10 2.42438e-05
7 *190:8 *584:83 2.90209e-08
8 *190:14 *191:10 4.15283e-06
9 *190:14 *305:25 0
10 *190:14 *323:6 5.62196e-06
11 *190:14 *324:19 2.61303e-05
12 *190:14 *441:21 5.58366e-06
13 *190:14 *584:96 0
14 *185:53 *190:14 2.30873e-06
*RES
1 *1675:CON *190:8 45.6313 
2 *190:8 *190:14 34.01 
3 *190:14 *1480:A2 17.2 
*END

*D_NET *191 0.000102681
*CONN
*I *1485:A I *D OR3x1_ASAP7_75t_R
*I *1675:SN O *D HAxp5_ASAP7_75t_R
*CAP
1 *1485:A 9.31464e-06
2 *1675:SN 1.97266e-05
3 *191:10 2.90412e-05
4 *1485:A *1485:C 3.05302e-06
5 *191:10 *441:21 1.31492e-05
6 *190:8 *191:10 2.42438e-05
7 *190:14 *191:10 4.15283e-06
*RES
1 *1675:SN *191:10 45.8581 
2 *191:10 *1485:A 39.7482 
*END

*D_NET *192 2.79003e-05
*CONN
*I *1676:A I *D HAxp5_ASAP7_75t_R
*I *1362:Y O *D INVx1_ASAP7_75t_R
*CAP
1 *1676:A 3.24495e-06
2 *1362:Y 2.60819e-06
3 *192:8 5.85315e-06
4 *1676:A *193:8 2.28976e-06
5 *192:8 *193:12 9.94583e-06
6 *192:8 *778:10 3.95845e-06
*RES
1 *1362:Y *192:8 37.779 
2 *192:8 *1676:A 36.0045 
*END

*D_NET *193 9.1889e-05
*CONN
*I *1225:B I *D OA21x2_ASAP7_75t_R
*I *1676:CON O *D HAxp5_ASAP7_75t_R
*CAP
1 *1225:B 0
2 *1676:CON 2.35539e-06
3 *193:12 1.35944e-05
4 *193:8 1.59497e-05
5 *193:8 *1676:B 2.28976e-06
6 *193:8 *194:10 1.04475e-06
7 *193:12 *769:10 7.13066e-06
8 *193:12 *769:23 3.07377e-05
9 *193:12 *778:10 6.55105e-06
10 *1676:A *193:8 2.28976e-06
11 *192:8 *193:12 9.94583e-06
*RES
1 *1676:CON *193:8 37.0741 
2 *193:8 *193:12 33.5318 
3 *193:12 *1225:B 17.2 
*END

*D_NET *194 0.000169807
*CONN
*I *1229:A I *D OR4x1_ASAP7_75t_R
*I *2004:A I *D BUFx3_ASAP7_75t_R
*I *1676:SN O *D HAxp5_ASAP7_75t_R
*CAP
1 *1229:A 0
2 *2004:A 1.59621e-05
3 *1676:SN 0
4 *194:25 1.04041e-05
5 *194:10 4.75511e-05
6 *194:4 4.19931e-05
7 *194:10 *1676:B 8.87763e-06
8 *194:10 *769:23 8.06436e-06
9 *194:25 *777:16 2.99682e-05
10 *194:25 *778:10 0
11 *148:12 *194:10 3.13426e-06
12 *148:18 *194:25 2.80709e-06
13 *193:8 *194:10 1.04475e-06
*RES
1 *1676:SN *194:4 17.2 
2 *194:4 *194:10 33.3865 
3 *194:10 *2004:A 44.5617 
4 *194:4 *194:25 44.537 
5 *194:25 *1229:A 17.2 
*END

*D_NET *195 6.03617e-05
*CONN
*I *1677:A I *D HAxp5_ASAP7_75t_R
*I *2011:A I *D BUFx3_ASAP7_75t_R
*I *1352:Y O *D INVx1_ASAP7_75t_R
*CAP
1 *1677:A 0
2 *2011:A 0
3 *1352:Y 2.16511e-05
4 *195:12 6.6271e-06
5 *195:6 2.82782e-05
6 *195:6 *686:14 3.80537e-06
7 *195:12 *686:14 0
8 *195:12 *1046:10 0
9 *150:10 *195:12 0
*RES
1 *1352:Y *195:6 27.3617 
2 *195:6 *195:12 38.9053 
3 *195:12 *2011:A 17.2 
4 *195:6 *1677:A 17.2 
*END

*D_NET *196 6.1812e-05
*CONN
*I *1280:B I *D OA21x2_ASAP7_75t_R
*I *1677:CON O *D HAxp5_ASAP7_75t_R
*CAP
1 *1280:B 0
2 *1677:CON 2.31108e-05
3 *196:6 2.31108e-05
4 *196:6 *197:6 3.05302e-06
5 *196:6 *197:19 9.07421e-06
6 *1280:A2 *196:6 3.46317e-06
*RES
1 *1677:CON *196:6 33.7796 
2 *196:6 *1280:B 17.2 
*END

*D_NET *197 6.20242e-05
*CONN
*I *1277:A I *D OR2x2_ASAP7_75t_R
*I *1280:A1 I *D OA21x2_ASAP7_75t_R
*I *1677:SN O *D HAxp5_ASAP7_75t_R
*CAP
1 *1277:A 0
2 *1280:A1 0
3 *1677:SN 2.68626e-06
4 *197:19 1.41335e-05
5 *197:6 1.68198e-05
6 *119:21 *197:19 1.62574e-05
7 *196:6 *197:6 3.05302e-06
8 *196:6 *197:19 9.07421e-06
*RES
1 *1677:SN *197:6 19.3393 
2 *197:6 *1280:A1 17.2 
3 *197:6 *197:19 46.4496 
4 *197:19 *1277:A 17.2 
*END

*D_NET *198 0.000323848
*CONN
*I *2055:A I *D BUFx3_ASAP7_75t_R
*I *1678:A I *D HAxp5_ASAP7_75t_R
*I *1354:Y O *D OA21x2_ASAP7_75t_R
*CAP
1 *2055:A 0
2 *1678:A 3.17588e-06
3 *1354:Y 3.81267e-06
4 *198:12 3.64539e-05
5 *198:10 5.62755e-05
6 *198:8 2.68101e-05
7 *1678:A *201:25 8.65792e-06
8 *198:10 *1425:A2 1.75253e-05
9 *198:10 *537:8 5.64641e-06
10 *198:10 *728:18 0
11 *198:10 *1010:12 2.88634e-05
12 *198:10 *1019:94 5.52807e-07
13 *198:10 *1091:8 8.71771e-06
14 *198:10 *1112:102 1.96244e-06
15 *198:12 *199:18 7.09202e-05
16 *198:12 *297:16 0
17 *198:12 *524:12 0
18 *198:12 *527:22 0
19 *198:12 *996:10 1.70866e-06
20 *198:12 *1010:12 3.9332e-05
21 *198:12 *1082:10 0
22 *198:12 *1091:8 1.34329e-05
23 *13:14 *198:8 0
*RES
1 *1354:Y *198:8 36.0045 
2 *198:8 *198:10 24.7793 
3 *198:10 *198:12 39.4216 
4 *198:12 *1678:A 37.0741 
5 *198:10 *2055:A 34.4 
*END

*D_NET *199 0.000321064
*CONN
*I *1678:B I *D HAxp5_ASAP7_75t_R
*I *1975:A I *D BUFx3_ASAP7_75t_R
*I *1392:Y O *D AO21x1_ASAP7_75t_R
*CAP
1 *1678:B 0
2 *1975:A 1.38639e-05
3 *1392:Y 2.17402e-05
4 *199:18 4.08391e-05
5 *199:14 2.97254e-05
6 *199:12 4.24585e-05
7 *199:8 6.14485e-05
8 *199:8 *1392:B 2.61188e-06
9 *199:12 *2059:A 2.73415e-06
10 *199:12 *201:16 8.50346e-06
11 *199:12 *297:16 0
12 *199:12 *298:10 3.51107e-06
13 *199:12 *1016:10 2.83874e-07
14 *199:12 *1094:10 0
15 *199:14 *201:25 6.6195e-06
16 *199:14 *525:6 1.5804e-05
17 *199:18 *297:16 0
18 *198:12 *199:18 7.09202e-05
*RES
1 *1392:Y *199:8 43.492 
2 *199:8 *199:12 47.0478 
3 *199:12 *199:14 4.81343 
4 *199:14 *199:18 44.232 
5 *199:18 *1975:A 42.4224 
6 *199:14 *1678:B 17.2 
*END

*D_NET *200 8.65834e-05
*CONN
*I *1404:C I *D OA211x2_ASAP7_75t_R
*I *1678:CON O *D HAxp5_ASAP7_75t_R
*CAP
1 *1404:C 1.25323e-06
2 *1678:CON 6.89399e-06
3 *200:16 2.45461e-05
4 *200:8 3.01868e-05
5 *200:8 *201:16 6.94376e-06
6 *200:8 *525:14 1.12894e-06
7 *200:16 *1404:B 9.52454e-06
8 *200:16 *201:16 6.10603e-06
*RES
1 *1678:CON *200:8 40.0317 
2 *200:8 *200:16 46.3079 
3 *200:16 *1404:C 35.4697 
*END

*D_NET *201 0.000162048
*CONN
*I *1407:E I *D OR5x1_ASAP7_75t_R
*I *1404:A1 I *D OA211x2_ASAP7_75t_R
*I *1678:SN O *D HAxp5_ASAP7_75t_R
*CAP
1 *1407:E 0
2 *1404:A1 0
3 *1678:SN 1.37514e-05
4 *201:25 2.08108e-05
5 *201:16 1.4658e-05
6 *201:10 4.92201e-05
7 *201:10 *525:6 0
8 *201:16 *1404:A2 1.38527e-05
9 *201:16 *1404:B 3.46317e-06
10 *201:16 *521:26 0
11 *201:16 *1094:8 3.13426e-06
12 *201:16 *1094:10 0
13 *201:25 *525:6 6.32656e-06
14 *1678:A *201:25 8.65792e-06
15 *199:12 *201:16 8.50346e-06
16 *199:14 *201:25 6.6195e-06
17 *200:8 *201:16 6.94376e-06
18 *200:16 *201:16 6.10603e-06
*RES
1 *1678:SN *201:10 40.9596 
2 *201:10 *201:16 33.6982 
3 *201:16 *1404:A1 17.2 
4 *201:10 *201:25 33.2448 
5 *201:25 *1407:E 17.2 
*END

*D_NET *202 1.71098e-05
*CONN
*I *1679:A I *D HAxp5_ASAP7_75t_R
*I *1361:Y O *D NOR2x1_ASAP7_75t_R
*CAP
1 *1679:A 8.55491e-06
2 *1361:Y 8.55491e-06
*RES
1 *1361:Y *1679:A 38.1438 
*END

*D_NET *203 0.000181862
*CONN
*I *1679:B I *D HAxp5_ASAP7_75t_R
*I *1467:A2 I *D OA21x2_ASAP7_75t_R
*I *1465:Y O *D AO21x1_ASAP7_75t_R
*CAP
1 *1679:B 0
2 *1467:A2 1.13748e-05
3 *1465:Y 0
4 *203:23 2.63688e-05
5 *203:8 7.10915e-05
6 *203:6 3.33478e-05
7 *1467:A2 *1440:A2 2.03526e-06
8 *1467:A2 *550:6 1.34888e-05
9 *203:8 *1467:B 0
10 *203:8 *245:18 0
11 *203:8 *547:18 4.88445e-06
12 *203:8 *556:43 0
13 *203:8 *807:8 6.02093e-06
14 *203:8 *961:8 1.12894e-06
15 *203:23 *1467:B 0
16 *203:23 *204:8 1.21211e-05
17 *203:23 *245:18 0
18 *203:23 *550:12 0
*RES
1 *1465:Y *203:6 34.4 
2 *203:6 *203:8 25.9056 
3 *203:8 *1467:A2 44.0269 
4 *203:8 *203:23 35.3594 
5 *203:23 *1679:B 17.2 
*END

*D_NET *204 0.000100743
*CONN
*I *1435:A1 I *D OA21x2_ASAP7_75t_R
*I *1679:CON O *D HAxp5_ASAP7_75t_R
*CAP
1 *1435:A1 0
2 *1679:CON 6.39705e-06
3 *204:14 3.32988e-05
4 *204:8 3.96958e-05
5 *204:14 *1350:A 3.6269e-06
6 *204:14 *1462:B 5.06565e-06
7 *204:14 *1467:B 5.37866e-07
8 *204:14 *244:8 0
9 *204:14 *247:14 0
10 *203:23 *204:8 1.21211e-05
*RES
1 *1679:CON *204:8 38.1438 
2 *204:8 *204:14 38.7667 
3 *204:14 *1435:A1 17.2 
*END

*D_NET *205 0.000116962
*CONN
*I *1437:D I *D OR4x1_ASAP7_75t_R
*I *1679:SN O *D HAxp5_ASAP7_75t_R
*CAP
1 *1437:D 6.59747e-06
2 *1679:SN 2.94563e-05
3 *205:8 3.60538e-05
4 *1437:D *247:29 1.36155e-06
5 *1437:D *564:22 9.94583e-06
6 *205:8 *1443:A 3.3547e-05
7 *205:8 *551:6 0
*RES
1 *1679:SN *205:8 48.8403 
2 *205:8 *1437:D 38.8486 
*END

*D_NET *206 1.44986e-05
*CONN
*I *1680:A I *D HAxp5_ASAP7_75t_R
*I *1357:Y O *D NOR2x1_ASAP7_75t_R
*CAP
1 *1680:A 0
2 *1357:Y 5.64291e-06
3 *206:8 5.64291e-06
4 *206:8 *487:10 0
5 *206:8 *487:20 0
6 *206:8 *575:10 3.21276e-06
*RES
1 *1357:Y *206:8 38.9053 
2 *206:8 *1680:A 34.4 
*END

*D_NET *207 0.000216588
*CONN
*I *1680:B I *D HAxp5_ASAP7_75t_R
*I *1504:A2 I *D OA21x2_ASAP7_75t_R
*I *1502:Y O *D AO21x2_ASAP7_75t_R
*CAP
1 *1680:B 0
2 *1504:A2 2.0216e-06
3 *1502:Y 4.78578e-06
4 *207:25 3.40242e-05
5 *207:10 6.75601e-05
6 *207:8 3.63001e-05
7 *1504:A2 *816:6 1.36155e-06
8 *207:8 *1502:B 3.81627e-06
9 *207:10 *305:25 8.51183e-06
10 *207:10 *646:8 0
11 *207:10 *999:10 0
12 *207:10 *1017:22 0
13 *207:10 *1017:38 0
14 *207:10 *1046:10 2.46522e-06
15 *207:25 *1503:C 1.51587e-05
16 *207:25 *305:25 7.0488e-06
17 *207:25 *487:20 3.21613e-05
18 *207:25 *583:42 2.19448e-07
19 *207:25 *584:96 6.33206e-07
20 *207:25 *647:8 0
21 *207:25 *1108:14 5.19552e-07
*RES
1 *1502:Y *207:8 37.0741 
2 *207:8 *207:10 23.653 
3 *207:10 *1504:A2 35.4697 
4 *207:10 *207:25 42.8469 
5 *207:25 *1680:B 17.2 
*END

*D_NET *208 4.51545e-05
*CONN
*I *1482:A I *D AND2x2_ASAP7_75t_R
*I *1680:CON O *D HAxp5_ASAP7_75t_R
*CAP
1 *1482:A 0
2 *1680:CON 1.59306e-05
3 *208:8 1.59306e-05
4 *208:8 *2073:A 2.35211e-06
5 *208:8 *220:8 0
6 *208:8 *575:10 6.53854e-06
7 *208:8 *579:10 4.40256e-06
*RES
1 *1680:CON *208:8 48.4791 
2 *208:8 *1482:A 34.4 
*END

*D_NET *209 0.000180303
*CONN
*I *1486:D I *D OR5x1_ASAP7_75t_R
*I *2070:A I *D BUFx3_ASAP7_75t_R
*I *1680:SN O *D HAxp5_ASAP7_75t_R
*CAP
1 *1486:D 7.63574e-06
2 *2070:A 0
3 *1680:SN 2.33689e-05
4 *209:14 2.39106e-05
5 *209:8 5.49152e-05
6 *1486:D *1486:C 1.35684e-06
7 *1486:D *328:22 1.70708e-06
8 *1486:D *578:12 0
9 *1486:D *582:14 1.62184e-05
10 *209:8 *1488:B 2.09987e-05
11 *209:14 *1488:C 8.2174e-07
12 *209:14 *1692:B 1.12894e-06
13 *209:14 *249:8 3.81627e-06
14 *209:14 *249:10 7.75e-06
15 *209:14 *578:12 0
16 *209:14 *582:14 1.50458e-05
17 *209:14 *1099:8 1.62854e-06
18 *209:14 *1108:8 0
*RES
1 *1680:SN *209:8 45.6313 
2 *209:8 *209:14 38.4586 
3 *209:14 *2070:A 17.2 
4 *209:8 *1486:D 41.1013 
*END

*D_NET *210 3.14791e-05
*CONN
*I *1681:A I *D HAxp5_ASAP7_75t_R
*I *1328:Y O *D INVx1_ASAP7_75t_R
*CAP
1 *1681:A 0
2 *1328:Y 6.90413e-06
3 *210:8 6.90413e-06
4 *210:8 *2027:A 7.64042e-07
5 *210:8 *211:8 1.2033e-05
6 *210:8 *732:10 4.87385e-06
*RES
1 *1328:Y *210:8 42.2843 
2 *210:8 *1681:A 34.4 
*END

*D_NET *211 5.91249e-05
*CONN
*I *1380:B I *D OA21x2_ASAP7_75t_R
*I *1681:CON O *D HAxp5_ASAP7_75t_R
*CAP
1 *1380:B 0
2 *1681:CON 6.56981e-06
3 *211:8 6.56981e-06
4 *211:8 *212:16 3.77777e-06
5 *211:8 *732:10 3.01746e-05
6 *210:8 *211:8 1.2033e-05
*RES
1 *1681:CON *211:8 44.537 
2 *211:8 *1380:B 34.4 
*END

*D_NET *212 0.000100066
*CONN
*I *2005:A I *D BUFx3_ASAP7_75t_R
*I *1380:A2 I *D OA21x2_ASAP7_75t_R
*I *1681:SN O *D HAxp5_ASAP7_75t_R
*CAP
1 *2005:A 1.12073e-05
2 *1380:A2 8.16061e-06
3 *1681:SN 0
4 *212:16 3.38526e-05
5 *212:6 3.68992e-05
6 *212:16 *505:6 5.655e-06
7 *212:16 *732:10 5.13209e-07
8 *211:8 *212:16 3.77777e-06
*RES
1 *1681:SN *212:6 34.4 
2 *212:6 *212:16 48.7306 
3 *212:16 *1380:A2 38.6786 
4 *212:6 *2005:A 40.9029 
*END

*D_NET *213 1.51248e-05
*CONN
*I *1682:B I *D HAxp5_ASAP7_75t_R
*I *1347:Y O *D INVx5_ASAP7_75t_R
*CAP
1 *1682:B 0
2 *1347:Y 6.15572e-06
3 *213:8 6.15572e-06
4 *213:8 *1682:A 0
5 *213:8 *218:20 2.24968e-06
6 *213:8 *308:8 0
7 *213:8 *309:22 5.63702e-07
*RES
1 *1347:Y *213:8 38.9053 
2 *213:8 *1682:B 34.4 
*END

*D_NET *214 0.000125679
*CONN
*I *1372:B I *D NAND2x1_ASAP7_75t_R
*I *1371:A2 I *D AO21x1_ASAP7_75t_R
*I *1682:CON O *D HAxp5_ASAP7_75t_R
*CAP
1 *1372:B 0
2 *1371:A2 1.40693e-05
3 *1682:CON 1.75789e-05
4 *214:8 3.16482e-05
5 *1371:A2 *1371:B 3.09405e-05
6 *1371:A2 *1373:B 0
7 *214:8 *1371:B 6.48824e-06
8 *214:8 *1373:A2 0
9 *214:8 *215:8 2.99991e-06
10 *214:8 *215:23 2.1954e-05
11 *214:8 *309:22 0
*RES
1 *1682:CON *214:8 49.6055 
2 *214:8 *1371:A2 47.1544 
3 *214:8 *1372:B 34.4 
*END

*D_NET *215 0.000306122
*CONN
*I *1369:B I *D OR2x2_ASAP7_75t_R
*I *1371:B I *D AO21x1_ASAP7_75t_R
*I *2043:A I *D BUFx3_ASAP7_75t_R
*I *1682:SN O *D HAxp5_ASAP7_75t_R
*CAP
1 *1369:B 3.88124e-05
2 *1371:B 1.26761e-05
3 *2043:A 6.89288e-06
4 *1682:SN 6.3057e-06
5 *215:23 5.8868e-05
6 *215:12 2.22989e-05
7 *215:8 1.43322e-05
8 *1369:B *1369:A 1.02895e-05
9 *1369:B *494:10 2.48004e-05
10 *1371:B *309:22 0
11 *1371:B *494:10 4.71862e-06
12 *2043:A *1373:A1 2.03526e-06
13 *2043:A *1078:8 1.1677e-06
14 *215:8 *303:22 1.95243e-05
15 *215:12 *1373:A1 6.75247e-06
16 *215:23 *1367:A 0
17 *215:23 *494:10 1.42652e-05
18 *1371:A2 *1371:B 3.09405e-05
19 *214:8 *1371:B 6.48824e-06
20 *214:8 *215:8 2.99991e-06
21 *214:8 *215:23 2.1954e-05
*RES
1 *1682:SN *215:8 41.158 
2 *215:8 *215:12 22.0134 
3 *215:12 *2043:A 20.9438 
4 *215:12 *215:23 25.0843 
5 *215:23 *1371:B 47.8593 
6 *215:23 *1369:B 49.9099 
*END

*D_NET *216 4.86691e-05
*CONN
*I *1683:A I *D HAxp5_ASAP7_75t_R
*I *1592:Y O *D INVx1_ASAP7_75t_R
*CAP
1 *1683:A 0
2 *1592:Y 1.96162e-05
3 *216:10 1.96162e-05
4 *216:10 *217:10 3.75064e-06
5 *216:10 *302:12 0
6 *216:10 *303:16 2.17055e-06
7 *216:10 *735:20 3.51548e-06
8 *216:10 *747:10 0
*RES
1 *1592:Y *216:10 46.0281 
2 *216:10 *1683:A 34.4 
*END

*D_NET *217 6.02844e-05
*CONN
*I *1370:A2 I *D OA21x2_ASAP7_75t_R
*I *1683:CON O *D HAxp5_ASAP7_75t_R
*CAP
1 *1370:A2 2.1764e-06
2 *1683:CON 2.23245e-05
3 *217:10 2.45009e-05
4 *1370:A2 *218:12 3.41107e-06
5 *1370:A2 *302:12 2.12276e-06
6 *1370:A2 *495:8 1.75952e-06
7 *217:10 *218:8 2.38727e-07
8 *216:10 *217:10 3.75064e-06
*RES
1 *1683:CON *217:10 47.1544 
2 *217:10 *1370:A2 36.5393 
*END

*D_NET *218 0.000223121
*CONN
*I *1367:D I *D OR4x1_ASAP7_75t_R
*I *1683:SN O *D HAxp5_ASAP7_75t_R
*CAP
1 *1367:D 0
2 *1683:SN 4.01882e-06
3 *218:28 1.74039e-05
4 *218:20 3.54278e-05
5 *218:12 6.85569e-05
6 *218:8 5.45518e-05
7 *218:8 *302:12 9.38684e-06
8 *218:12 *1370:A1 3.89037e-06
9 *218:12 *1682:A 6.19506e-06
10 *218:12 *302:12 4.69205e-06
11 *218:12 *495:8 0
12 *218:20 *309:16 3.91501e-06
13 *218:28 *1367:B 1.7689e-06
14 *218:28 *309:10 5.63702e-07
15 *218:28 *309:22 6.03238e-06
16 *218:28 *310:8 8.18065e-07
17 *1370:A2 *218:12 3.41107e-06
18 *213:8 *218:20 2.24968e-06
19 *217:10 *218:8 2.38727e-07
*RES
1 *1683:SN *218:8 37.779 
2 *218:8 *218:12 35.9189 
3 *218:12 *218:20 45.2949 
4 *218:20 *218:28 44.3103 
5 *218:28 *1367:D 17.2 
*END

*D_NET *219 9.17152e-05
*CONN
*I *1684:A I *D HAxp5_ASAP7_75t_R
*I *1365:Y O *D NOR2x1_ASAP7_75t_R
*CAP
1 *1684:A 0
2 *1365:Y 0
3 *219:10 3.39164e-05
4 *219:6 3.39164e-05
5 *219:10 *1486:C 0
6 *219:10 *1490:B2 0
7 *219:10 *220:22 1.49407e-08
8 *219:10 *221:8 1.99031e-05
9 *219:10 *307:12 0
10 *219:10 *572:20 3.42646e-06
11 *219:10 *573:8 5.37866e-07
12 *219:10 *578:12 0
13 *219:10 *1003:14 0
*RES
1 *1365:Y *219:6 34.4 
2 *219:6 *219:10 43.1056 
3 *219:10 *1684:A 17.2 
*END

*D_NET *220 0.000306156
*CONN
*I *1684:B I *D HAxp5_ASAP7_75t_R
*I *1509:A2 I *D OA21x2_ASAP7_75t_R
*I *1507:Y O *D AO21x2_ASAP7_75t_R
*CAP
1 *1684:B 0
2 *1509:A2 0
3 *1507:Y 0
4 *220:36 3.74034e-06
5 *220:28 5.45548e-05
6 *220:22 5.63077e-05
7 *220:12 1.59629e-05
8 *220:8 5.08128e-05
9 *220:6 4.03432e-05
10 *220:8 *2073:A 5.49212e-07
11 *220:8 *575:10 0
12 *220:8 *578:12 3.25708e-06
13 *220:8 *579:10 1.12894e-06
14 *220:8 *581:8 0
15 *220:8 *594:8 4.88493e-06
16 *220:8 *1017:93 0
17 *220:8 *1095:12 1.99859e-06
18 *220:8 *1095:20 8.22984e-06
19 *220:8 *1108:8 2.70815e-05
20 *220:12 *576:6 1.79737e-06
21 *220:22 *578:12 2.95693e-06
22 *220:28 *583:105 0
23 *220:28 *584:129 2.53484e-05
24 *220:36 *1509:B 3.90258e-06
25 *220:36 *593:10 3.2842e-06
26 *208:8 *220:8 0
27 *219:10 *220:22 1.49407e-08
*RES
1 *1507:Y *220:6 34.4 
2 *220:6 *220:8 33.2268 
3 *220:8 *220:12 23.0831 
4 *220:12 *220:22 48.3688 
5 *220:22 *220:28 35.6758 
6 *220:28 *220:36 36.6898 
7 *220:36 *1509:A2 17.2 
8 *220:12 *1684:B 17.2 
*END

*D_NET *221 4.30977e-05
*CONN
*I *1479:B I *D OA21x2_ASAP7_75t_R
*I *1684:CON O *D HAxp5_ASAP7_75t_R
*CAP
1 *1479:B 3.09513e-06
2 *1684:CON 5.64872e-06
3 *221:8 8.74385e-06
4 *1479:B *222:23 2.03526e-06
5 *221:8 *222:23 5.23253e-07
6 *221:8 *573:8 3.14843e-06
7 *219:10 *221:8 1.99031e-05
*RES
1 *1684:CON *221:8 41.158 
2 *221:8 *1479:B 36.0045 
*END

*D_NET *222 0.000147778
*CONN
*I *1479:A1 I *D OA21x2_ASAP7_75t_R
*I *1486:C I *D OR5x1_ASAP7_75t_R
*I *1684:SN O *D HAxp5_ASAP7_75t_R
*CAP
1 *1479:A1 0
2 *1486:C 1.96661e-05
3 *1684:SN 0
4 *222:23 3.00873e-05
5 *222:6 4.97535e-05
6 *1486:C *572:14 7.84037e-07
7 *1486:C *573:8 8.46363e-06
8 *1486:C *576:14 8.46363e-06
9 *1486:C *577:10 1.67815e-06
10 *1486:C *578:12 0
11 *1486:C *582:14 1.12044e-05
12 *222:23 *1490:B2 2.19685e-06
13 *222:23 *572:14 1.45645e-06
14 *222:23 *573:8 7.97464e-06
15 *222:23 *577:10 2.13335e-06
16 *1479:B *222:23 2.03526e-06
17 *1486:D *1486:C 1.35684e-06
18 *219:10 *1486:C 0
19 *221:8 *222:23 5.23253e-07
*RES
1 *1684:SN *222:6 34.4 
2 *222:6 *1486:C 49.3504 
3 *222:6 *222:23 36.3156 
4 *222:23 *1479:A1 17.2 
*END

*D_NET *223 0.000281017
*CONN
*I *1971:A I *D BUFx3_ASAP7_75t_R
*I *1685:A I *D HAxp5_ASAP7_75t_R
*I *1421:Y O *D OA21x2_ASAP7_75t_R
*CAP
1 *1971:A 1.62958e-05
2 *1685:A 0
3 *1421:Y 6.08481e-06
4 *223:12 3.69841e-05
5 *223:10 9.54051e-05
6 *223:8 4.821e-05
7 *1971:A *1081:8 5.09299e-06
8 *223:10 *253:8 0
9 *223:10 *253:16 0
10 *223:10 *287:50 0
11 *223:10 *529:48 3.09138e-06
12 *223:10 *534:10 0
13 *223:10 *728:8 1.091e-06
14 *223:10 *835:10 4.77975e-06
15 *223:10 *882:25 0
16 *223:10 *1081:71 8.14425e-07
17 *223:12 *1414:B 2.69965e-05
18 *223:12 *1415:B 0
19 *223:12 *224:10 0
20 *223:12 *287:50 0
21 *223:12 *288:25 5.00394e-06
22 *223:12 *534:10 0
23 *223:12 *1011:10 8.2174e-07
24 *223:12 *1013:8 0
25 *223:12 *1081:18 0
26 *223:12 *1113:27 3.03456e-05
27 *19:6 *223:8 0
*RES
1 *1421:Y *223:8 37.0741 
2 *223:8 *223:10 32.1005 
3 *223:10 *223:12 34.3531 
4 *223:12 *1685:A 34.4 
5 *223:10 *1971:A 44.5617 
*END

*D_NET *224 0.000236496
*CONN
*I *1976:A I *D BUFx3_ASAP7_75t_R
*I *1685:B I *D HAxp5_ASAP7_75t_R
*I *1390:Y O *D AO21x1_ASAP7_75t_R
*CAP
1 *1976:A 1.01087e-05
2 *1685:B 3.3565e-06
3 *1390:Y 1.91024e-05
4 *224:10 3.65238e-05
5 *224:8 4.21611e-05
6 *1685:B *1402:A2 2.03526e-06
7 *1976:A *253:16 1.5053e-05
8 *1976:A *288:25 6.95214e-06
9 *224:8 *1390:A2 1.42799e-05
10 *224:8 *736:20 2.90209e-08
11 *224:10 *253:16 2.63431e-05
12 *224:10 *288:12 2.20128e-06
13 *224:10 *288:25 6.33206e-07
14 *224:10 *509:32 7.44362e-07
15 *224:10 *510:8 1.12894e-06
16 *224:10 *744:18 3.80553e-05
17 *224:10 *746:20 1.77874e-05
18 *224:10 *746:24 0
19 *223:12 *224:10 0
*RES
1 *1390:Y *224:8 42.9572 
2 *224:8 *224:10 24.7793 
3 *224:10 *1685:B 36.0045 
4 *224:10 *1976:A 42.7058 
*END

*D_NET *225 8.27465e-05
*CONN
*I *1402:A2 I *D OA21x2_ASAP7_75t_R
*I *1685:CON O *D HAxp5_ASAP7_75t_R
*CAP
1 *1402:A2 1.74226e-05
2 *1685:CON 1.74226e-05
3 *1402:A2 *1402:B 1.62312e-05
4 *1402:A2 *226:8 7.637e-06
5 *1402:A2 *226:14 5.7667e-06
6 *1402:A2 *520:8 1.62312e-05
7 *1685:B *1402:A2 2.03526e-06
*RES
1 *1685:CON *1402:A2 48.8403 
*END

*D_NET *226 0.000208789
*CONN
*I *1405:C I *D OR3x1_ASAP7_75t_R
*I *1685:SN O *D HAxp5_ASAP7_75t_R
*CAP
1 *1405:C 0
2 *1685:SN 3.07873e-05
3 *226:14 1.51549e-05
4 *226:8 4.59422e-05
5 *226:8 *1978:A 3.28582e-06
6 *226:14 *1402:B 1.62312e-05
7 *226:14 *1405:B 8.90926e-06
8 *226:14 *256:8 1.53071e-05
9 *226:14 *256:12 3.57058e-05
10 *226:14 *256:22 1.7743e-05
11 *226:14 *1012:10 6.31894e-06
12 *1402:A2 *226:8 7.637e-06
13 *1402:A2 *226:14 5.7667e-06
*RES
1 *1685:SN *226:8 48.8403 
2 *226:8 *226:14 39.3829 
3 *226:14 *1405:C 17.2 
*END

*D_NET *227 2.36974e-05
*CONN
*I *1686:A I *D HAxp5_ASAP7_75t_R
*I *1334:Y O *D INVx1_ASAP7_75t_R
*CAP
1 *1686:A 0
2 *1334:Y 4.68064e-06
3 *227:8 4.68064e-06
4 *227:8 *230:10 5.52264e-06
5 *227:8 *806:14 8.8135e-06
*RES
1 *1334:Y *227:8 41.158 
2 *227:8 *1686:A 34.4 
*END

*D_NET *228 0.000224258
*CONN
*I *1432:A2 I *D OA21x2_ASAP7_75t_R
*I *1686:B I *D HAxp5_ASAP7_75t_R
*I *1593:A I *D INVx1_ASAP7_75t_R
*I *1398:Y O *D AO21x1_ASAP7_75t_R
*CAP
1 *1432:A2 1.54586e-05
2 *1686:B 0
3 *1593:A 9.67403e-06
4 *1398:Y 1.88367e-05
5 *228:21 3.14469e-05
6 *228:10 3.89714e-05
7 *228:8 3.21457e-05
8 *1432:A2 *230:10 0
9 *1432:A2 *539:6 1.7743e-05
10 *1432:A2 *541:8 0
11 *1432:A2 *806:14 1.09067e-06
12 *1432:A2 *817:8 1.16894e-05
13 *1432:A2 *1079:16 3.86483e-06
14 *1432:A2 *1092:10 0
15 *1432:A2 *1112:86 3.46317e-06
16 *228:8 *1398:A2 2.20493e-06
17 *228:8 *1398:B 5.19552e-07
18 *228:10 *230:27 0
19 *228:10 *971:8 3.99964e-06
20 *228:21 *230:10 0
21 *228:21 *230:27 0
22 *228:21 *806:14 2.70427e-06
23 *228:21 *817:8 2.71199e-05
24 *228:21 *971:8 3.32524e-06
*RES
1 *1398:Y *228:8 42.4224 
2 *228:8 *228:10 9.01066 
3 *228:10 *1593:A 38.1438 
4 *228:10 *228:21 16.3318 
5 *228:21 *1686:B 34.4 
6 *228:21 *1432:A2 48.7589 
*END

*D_NET *229 8.22583e-05
*CONN
*I *1407:D I *D OR5x1_ASAP7_75t_R
*I *1686:SN O *D HAxp5_ASAP7_75t_R
*CAP
1 *1407:D 0
2 *1686:SN 3.54775e-05
3 *229:6 3.54775e-05
4 *229:6 *1407:A 7.35354e-06
5 *229:6 *1407:B 2.66797e-07
6 *229:6 *1407:C 3.68287e-06
*RES
1 *1686:SN *229:6 36.9885 
2 *229:6 *1407:D 17.2 
*END

*D_NET *230 0.000219046
*CONN
*I *1687:A I *D HAxp5_ASAP7_75t_R
*I *1334:A I *D INVx1_ASAP7_75t_R
*I *1333:Y O *D OR2x2_ASAP7_75t_R
*CAP
1 *1687:A 0
2 *1334:A 7.46939e-06
3 *1333:Y 4.15277e-06
4 *230:27 1.09626e-05
5 *230:14 2.32749e-05
6 *230:10 4.62058e-05
7 *230:8 4.55156e-05
8 *1334:A *806:14 2.28976e-06
9 *230:10 *1431:B 1.10561e-06
10 *230:10 *264:10 4.45472e-06
11 *230:10 *264:23 4.12919e-06
12 *230:10 *475:10 0
13 *230:10 *540:12 1.09842e-06
14 *230:10 *541:8 4.44009e-05
15 *230:10 *806:14 0
16 *230:10 *1079:8 1.73733e-05
17 *230:27 *264:10 0
18 *1432:A2 *230:10 0
19 *12:10 *230:27 1.09067e-06
20 *227:8 *230:10 5.52264e-06
21 *228:10 *230:27 0
22 *228:21 *230:10 0
23 *228:21 *230:27 0
*RES
1 *1333:Y *230:8 36.0045 
2 *230:8 *230:10 39.4216 
3 *230:10 *230:14 19.8741 
4 *230:14 *1334:A 22.0134 
5 *230:14 *230:27 42.2843 
6 *230:27 *1687:A 17.2 
*END

*D_NET *231 1.6784e-05
*CONN
*I *1687:B I *D HAxp5_ASAP7_75t_R
*I *1593:Y O *D INVx1_ASAP7_75t_R
*CAP
1 *1687:B 8.392e-06
2 *1593:Y 8.392e-06
*RES
1 *1593:Y *1687:B 39.2134 
*END

*D_NET *232 8.64108e-05
*CONN
*I *1688:A I *D HAxp5_ASAP7_75t_R
*I *1313:Y O *D NOR2x1_ASAP7_75t_R
*CAP
1 *1688:A 0
2 *1313:Y 3.68138e-06
3 *232:14 3.05776e-05
4 *232:8 3.4259e-05
5 *232:8 *642:6 2.27522e-06
6 *232:14 *1570:B 8.8135e-06
7 *232:14 *233:23 4.26373e-06
8 *232:14 *235:6 2.54045e-06
9 *78:12 *232:14 0
*RES
1 *1313:Y *232:8 36.0045 
2 *232:8 *232:14 40.2048 
3 *232:14 *1688:A 17.2 
*END

*D_NET *233 0.000192702
*CONN
*I *1570:A2 I *D OA21x2_ASAP7_75t_R
*I *1688:B I *D HAxp5_ASAP7_75t_R
*I *1568:Y O *D AO21x2_ASAP7_75t_R
*CAP
1 *1570:A2 0
2 *1688:B 0
3 *1568:Y 8.65453e-06
4 *233:23 1.99768e-05
5 *233:12 4.62206e-05
6 *233:8 3.48984e-05
7 *233:8 *1015:94 6.86929e-06
8 *233:12 *1572:A2 0
9 *233:12 *277:10 0
10 *233:12 *702:23 0
11 *233:23 *235:6 5.00816e-06
12 *233:23 *644:10 1.19507e-05
13 *78:12 *233:12 3.01234e-05
14 *78:12 *233:23 1.26634e-05
15 *79:8 *233:12 1.03765e-05
16 *79:14 *233:12 1.69693e-06
17 *232:14 *233:23 4.26373e-06
*RES
1 *1568:Y *233:8 39.2134 
2 *233:8 *233:12 41.9793 
3 *233:12 *1688:B 17.2 
4 *233:12 *233:23 35.0229 
5 *233:23 *1570:A2 34.4 
*END

*D_NET *234 6.48778e-05
*CONN
*I *1538:B I *D OA21x2_ASAP7_75t_R
*I *1688:CON O *D HAxp5_ASAP7_75t_R
*CAP
1 *1538:B 9.36729e-06
2 *1688:CON 7.91467e-06
3 *234:8 1.7282e-05
4 *1538:B *1538:A2 1.69821e-05
5 *1538:B *235:19 3.42414e-06
6 *1538:B *618:10 4.56834e-06
7 *234:8 *235:19 5.33933e-06
8 *78:12 *234:8 0
*RES
1 *1688:CON *234:8 41.158 
2 *234:8 *1538:B 41.3527 
*END

*D_NET *235 0.0001697
*CONN
*I *1538:A1 I *D OA21x2_ASAP7_75t_R
*I *1545:D I *D OR5x1_ASAP7_75t_R
*I *1688:SN O *D HAxp5_ASAP7_75t_R
*CAP
1 *1538:A1 0
2 *1545:D 0
3 *1688:SN 0
4 *235:19 1.2724e-05
5 *235:6 6.05598e-05
6 *235:4 7.32838e-05
7 *235:6 *1014:25 6.81991e-06
8 *1538:B *235:19 3.42414e-06
9 *232:14 *235:6 2.54045e-06
10 *233:23 *235:6 5.00816e-06
11 *234:8 *235:19 5.33933e-06
*RES
1 *1688:SN *235:4 17.2 
2 *235:4 *235:6 37.4378 
3 *235:6 *1545:D 17.2 
4 *235:4 *235:19 42.171 
5 *235:19 *1538:A1 17.2 
*END

*D_NET *236 1.13403e-05
*CONN
*I *1689:A I *D HAxp5_ASAP7_75t_R
*I *1316:Y O *D NOR2x1_ASAP7_75t_R
*CAP
1 *1689:A 0
2 *1316:Y 5.67016e-06
3 *236:8 5.67016e-06
4 *236:8 *721:45 0
*RES
1 *1316:Y *236:8 37.779 
2 *236:8 *1689:A 34.4 
*END

*D_NET *237 0.000373693
*CONN
*I *1689:B I *D HAxp5_ASAP7_75t_R
*I *1602:A2 I *D OA21x2_ASAP7_75t_R
*I *1600:Y O *D AO21x1_ASAP7_75t_R
*CAP
1 *1689:B 0
2 *1602:A2 1.85421e-06
3 *1600:Y 4.82401e-06
4 *237:45 3.47588e-05
5 *237:28 1.13328e-05
6 *237:18 0.000106178
7 *237:16 7.78772e-05
8 *237:10 2.07607e-05
9 *1602:A2 *1602:B 1.36155e-06
10 *237:10 *1600:B 3.65467e-06
11 *237:10 *398:133 1.89667e-07
12 *237:16 *398:125 2.18494e-05
13 *237:18 *387:24 1.88936e-05
14 *237:18 *398:125 6.03405e-06
15 *237:18 *721:16 4.63682e-05
16 *237:18 *811:20 1.1889e-05
17 *237:18 *812:20 2.66911e-06
18 *237:28 *398:12 0
19 *237:28 *554:18 0
20 *237:28 *721:24 1.0336e-06
21 *237:28 *811:20 0
22 *237:28 *812:20 2.16453e-06
23 *237:45 *649:8 0
24 *237:45 *721:45 0
*RES
1 *1600:Y *237:10 37.384 
2 *237:10 *237:16 34.7897 
3 *237:16 *237:18 25.0713 
4 *237:18 *237:28 49.9126 
5 *237:28 *1602:A2 18.2696 
6 *237:18 *237:45 42.5122 
7 *237:45 *1689:B 34.4 
*END

*D_NET *238 0.000133009
*CONN
*I *1445:A2 I *D AO21x1_ASAP7_75t_R
*I *1446:A I *D NAND2x1_ASAP7_75t_R
*I *1689:CON O *D HAxp5_ASAP7_75t_R
*CAP
1 *1445:A2 0
2 *1446:A 4.61981e-06
3 *1689:CON 4.06103e-06
4 *238:27 7.98931e-06
5 *238:12 3.05727e-05
6 *238:8 2.20246e-05
7 *238:8 *239:10 4.10928e-06
8 *238:8 *649:8 0
9 *238:12 *239:14 1.57665e-06
10 *238:12 *239:24 1.6096e-06
11 *238:12 *554:10 1.35697e-05
12 *238:27 *239:24 9.75735e-06
13 *238:27 *239:30 3.05302e-06
14 *238:27 *553:10 1.42799e-05
15 *238:27 *649:8 7.89306e-06
16 *238:27 *721:24 7.89306e-06
*RES
1 *1689:CON *238:8 37.779 
2 *238:8 *238:12 25.2224 
3 *238:12 *1446:A 19.3393 
4 *238:12 *238:27 45.773 
5 *238:27 *1445:A2 17.2 
*END

*D_NET *239 0.000282282
*CONN
*I *1446:B I *D NAND2x1_ASAP7_75t_R
*I *1445:B I *D AO21x1_ASAP7_75t_R
*I *1444:B I *D OR3x1_ASAP7_75t_R
*I *1689:SN O *D HAxp5_ASAP7_75t_R
*CAP
1 *1446:B 0
2 *1445:B 0
3 *1444:B 1.30218e-05
4 *1689:SN 2.55828e-05
5 *239:30 4.0553e-05
6 *239:24 4.71151e-05
7 *239:14 2.81087e-05
8 *239:10 3.41076e-05
9 *1444:B *1444:C 3.05302e-06
10 *1444:B *556:118 7.86466e-06
11 *239:10 *554:10 0
12 *239:10 *649:8 0
13 *239:14 *554:10 7.94773e-06
14 *239:24 *554:10 8.83367e-06
15 *239:24 *649:8 8.3785e-06
16 *239:30 *1447:B 6.7842e-07
17 *239:30 *552:8 0
18 *239:30 *553:18 6.33206e-07
19 *239:30 *555:6 7.72307e-07
20 *239:30 *556:116 0
21 *239:30 *558:10 2.18304e-06
22 *98:16 *239:30 1.49407e-08
23 *98:20 *1444:B 3.33273e-05
24 *238:8 *239:10 4.10928e-06
25 *238:12 *239:14 1.57665e-06
26 *238:12 *239:24 1.6096e-06
27 *238:27 *239:24 9.75735e-06
28 *238:27 *239:30 3.05302e-06
*RES
1 *1689:SN *239:10 46.9844 
2 *239:10 *239:14 22.5483 
3 *239:14 *239:24 49.5168 
4 *239:24 *239:30 33.05 
5 *239:30 *1444:B 48.8403 
6 *239:24 *1445:B 17.2 
7 *239:14 *1446:B 17.2 
*END

*D_NET *240 9.79886e-05
*CONN
*I *1690:A I *D HAxp5_ASAP7_75t_R
*I *1301:Y O *D NOR2x1_ASAP7_75t_R
*CAP
1 *1690:A 0
2 *1301:Y 0
3 *240:10 2.76054e-05
4 *240:6 2.76054e-05
5 *240:10 *1546:B 0
6 *240:10 *241:12 0
7 *240:10 *241:27 4.19954e-05
8 *240:10 *623:10 0
9 *240:10 *628:77 7.82377e-07
10 *240:10 *1005:12 0
*RES
1 *1301:Y *240:6 34.4 
2 *240:6 *240:10 41.9793 
3 *240:10 *1690:A 17.2 
*END

*D_NET *241 0.000259446
*CONN
*I *1970:A I *D BUFx3_ASAP7_75t_R
*I *1690:B I *D HAxp5_ASAP7_75t_R
*I *1608:Y O *D AO21x2_ASAP7_75t_R
*CAP
1 *1970:A 0
2 *1690:B 9.61859e-06
3 *1608:Y 2.67151e-05
4 *241:27 1.23932e-05
5 *241:14 3.59499e-05
6 *241:12 4.72618e-05
7 *241:8 6.00388e-05
8 *1690:B *242:23 2.20493e-06
9 *241:8 *1608:B 3.13426e-06
10 *241:8 *609:10 0
11 *241:12 *243:21 8.46363e-06
12 *241:12 *627:14 0
13 *241:12 *994:8 0
14 *241:12 *1004:14 0
15 *241:12 *1106:10 4.91942e-06
16 *241:14 *243:6 1.51653e-06
17 *241:27 *620:10 0
18 *241:27 *624:32 4.97876e-07
19 *241:27 *1110:10 4.73699e-06
20 *240:10 *241:12 0
21 *240:10 *241:27 4.19954e-05
*RES
1 *1608:Y *241:8 45.6313 
2 *241:8 *241:12 41.9793 
3 *241:12 *241:14 8.02238 
4 *241:14 *1690:B 23.0831 
5 *241:14 *241:27 48.4791 
6 *241:27 *1970:A 17.2 
*END

*D_NET *242 0.00012216
*CONN
*I *1540:C I *D OA211x2_ASAP7_75t_R
*I *1969:A I *D BUFx3_ASAP7_75t_R
*I *1690:CON O *D HAxp5_ASAP7_75t_R
*CAP
1 *1540:C 0
2 *1969:A 1.78525e-05
3 *1690:CON 0
4 *242:23 3.45769e-05
5 *242:6 5.24293e-05
6 *242:23 *316:12 3.05302e-06
7 *242:23 *620:8 1.20437e-05
8 *1690:B *242:23 2.20493e-06
*RES
1 *1690:CON *242:6 34.4 
2 *242:6 *1969:A 44.8451 
3 *242:6 *242:23 41.3521 
4 *242:23 *1540:C 17.2 
*END

*D_NET *243 5.2104e-05
*CONN
*I *1963:A I *D BUFx3_ASAP7_75t_R
*I *1543:A I *D INVx1_ASAP7_75t_R
*I *1690:SN O *D HAxp5_ASAP7_75t_R
*CAP
1 *1963:A 0
2 *1543:A 0
3 *1690:SN 7.85522e-06
4 *243:21 1.29303e-05
5 *243:6 2.07855e-05
6 *243:21 *994:8 5.52807e-07
7 *241:12 *243:21 8.46363e-06
8 *241:14 *243:6 1.51653e-06
*RES
1 *1690:SN *243:6 20.9438 
2 *243:6 *1543:A 17.2 
3 *243:6 *243:21 43.0989 
4 *243:21 *1963:A 17.2 
*END

*D_NET *244 1.33902e-05
*CONN
*I *1691:B I *D HAxp5_ASAP7_75t_R
*I *1350:Y O *D NOR2x2_ASAP7_75t_R
*CAP
1 *1691:B 0
2 *1350:Y 6.69508e-06
3 *244:8 6.69508e-06
4 *244:8 *246:8 0
5 *244:8 *247:14 0
6 *204:14 *244:8 0
*RES
1 *1350:Y *244:8 38.9053 
2 *244:8 *1691:B 34.4 
*END

*D_NET *245 0.000223648
*CONN
*I *1463:A2 I *D OA21x2_ASAP7_75t_R
*I *1691:A I *D HAxp5_ASAP7_75t_R
*I *1461:Y O *D AO21x1_ASAP7_75t_R
*CAP
1 *1463:A2 0
2 *1691:A 3.93184e-06
3 *1461:Y 1.15502e-05
4 *245:18 4.13833e-05
5 *245:12 6.81924e-05
6 *245:8 4.22911e-05
7 *1691:A *247:14 3.56177e-06
8 *245:8 *1461:A2 1.00976e-05
9 *245:8 *398:34 1.02895e-05
10 *245:12 *383:8 0
11 *245:12 *386:14 1.26567e-05
12 *245:12 *556:43 4.74168e-07
13 *245:12 *564:22 9.11435e-07
14 *245:12 *961:8 0
15 *245:18 *1440:A1 5.96584e-06
16 *245:18 *246:8 8.26247e-06
17 *245:18 *247:29 0
18 *245:18 *545:8 1.12894e-06
19 *245:18 *550:12 8.3668e-07
20 *245:18 *564:22 2.11361e-06
21 *203:8 *245:18 0
22 *203:23 *245:18 0
*RES
1 *1461:Y *245:8 39.2134 
2 *245:8 *245:12 41.9793 
3 *245:12 *245:18 43.5838 
4 *245:18 *1691:A 37.0741 
5 *245:12 *1463:A2 17.2 
*END

*D_NET *246 4.25124e-05
*CONN
*I *1435:B I *D OA21x2_ASAP7_75t_R
*I *1691:CON O *D HAxp5_ASAP7_75t_R
*CAP
1 *1435:B 0
2 *1691:CON 1.36531e-05
3 *246:8 1.36531e-05
4 *246:8 *247:14 6.94376e-06
5 *1436:A1 *246:8 0
6 *59:12 *246:8 0
7 *244:8 *246:8 0
8 *245:18 *246:8 8.26247e-06
*RES
1 *1691:CON *246:8 45.6633 
2 *246:8 *1435:B 34.4 
*END

*D_NET *247 0.000118762
*CONN
*I *1437:A I *D OR4x1_ASAP7_75t_R
*I *1435:A2 I *D OA21x2_ASAP7_75t_R
*I *1691:SN O *D HAxp5_ASAP7_75t_R
*CAP
1 *1437:A 0
2 *1435:A2 0
3 *1691:SN 0
4 *247:29 2.54212e-05
5 *247:14 2.04369e-05
6 *247:4 4.58581e-05
7 *1437:B *247:29 2.05045e-06
8 *1437:C *247:29 1.25483e-05
9 *1437:D *247:29 1.36155e-06
10 *1691:A *247:14 3.56177e-06
11 *59:12 *247:29 5.79724e-07
12 *204:14 *247:14 0
13 *244:8 *247:14 0
14 *245:18 *247:29 0
15 *246:8 *247:14 6.94376e-06
*RES
1 *1691:SN *247:4 17.2 
2 *247:4 *247:14 45.9147 
3 *247:14 *1435:A2 17.2 
4 *247:4 *247:29 49.0387 
5 *247:29 *1437:A 17.2 
*END

*D_NET *248 0.000208489
*CONN
*I *1242:A I *D INVx1_ASAP7_75t_R
*I *1692:A I *D HAxp5_ASAP7_75t_R
*I *1241:Y O *D NOR2x1_ASAP7_75t_R
*CAP
1 *1242:A 0
2 *1692:A 0
3 *1241:Y 0
4 *248:16 5.03689e-05
5 *248:10 8.83862e-05
6 *248:6 3.80173e-05
7 *248:10 *1478:B 3.875e-06
8 *248:10 *249:25 0
9 *248:10 *1007:12 0
10 *248:16 *1693:A 0
11 *248:16 *250:8 5.77141e-06
12 *248:16 *326:12 6.76305e-06
13 *248:16 *1000:10 1.53071e-05
*RES
1 *1241:Y *248:6 34.4 
2 *248:6 *248:10 45.9215 
3 *248:10 *248:16 43.1267 
4 *248:16 *1692:A 34.4 
5 *248:10 *1242:A 17.2 
*END

*D_NET *249 0.000285604
*CONN
*I *1692:B I *D HAxp5_ASAP7_75t_R
*I *1972:A I *D BUFx3_ASAP7_75t_R
*I *1298:A I *D INVx1_ASAP7_75t_R
*I *1297:Y O *D AO21x2_ASAP7_75t_R
*CAP
1 *1692:B 6.05105e-06
2 *1972:A 6.6985e-06
3 *1298:A 0
4 *1297:Y 4.94196e-06
5 *249:25 3.99599e-05
6 *249:14 5.98748e-05
7 *249:10 4.47013e-05
8 *249:8 1.69789e-05
9 *1692:B *326:12 8.2174e-07
10 *1692:B *582:14 6.33206e-07
11 *1972:A *327:8 6.6195e-06
12 *249:10 *1000:10 0
13 *249:10 *1099:8 0
14 *249:10 *1105:10 5.97901e-06
15 *249:14 *2052:A 3.37545e-05
16 *249:14 *326:6 1.62312e-05
17 *249:25 *2052:A 1.42799e-05
18 *249:25 *252:10 8.2174e-07
19 *249:25 *328:35 1.12894e-06
20 *9:8 *249:25 1.34329e-05
21 *209:14 *1692:B 1.12894e-06
22 *209:14 *249:8 3.81627e-06
23 *209:14 *249:10 7.75e-06
24 *248:10 *249:25 0
*RES
1 *1297:Y *249:8 38.1438 
2 *249:8 *249:10 12.3897 
3 *249:10 *249:14 31.6403 
4 *249:14 *1298:A 17.2 
5 *249:14 *249:25 39.4149 
6 *249:25 *1972:A 39.2134 
7 *249:10 *1692:B 38.9053 
*END

*D_NET *250 8.20307e-05
*CONN
*I *1486:E I *D OR5x1_ASAP7_75t_R
*I *1692:SN O *D HAxp5_ASAP7_75t_R
*CAP
1 *1486:E 4.4268e-06
2 *1692:SN 1.82638e-05
3 *250:8 2.26906e-05
4 *1486:E *580:8 5.28609e-06
5 *1486:E *582:14 1.65068e-05
6 *250:8 *1488:B 9.08513e-06
7 *248:16 *250:8 5.77141e-06
*RES
1 *1692:SN *250:8 46.1661 
2 *250:8 *1486:E 40.0317 
*END

*D_NET *251 5.44577e-05
*CONN
*I *1693:A I *D HAxp5_ASAP7_75t_R
*I *1242:Y O *D INVx1_ASAP7_75t_R
*CAP
1 *1693:A 2.72289e-05
2 *1242:Y 2.72289e-05
3 *248:16 *1693:A 0
*RES
1 *1242:Y *1693:A 46.701 
*END

*D_NET *252 3.8853e-05
*CONN
*I *1693:B I *D HAxp5_ASAP7_75t_R
*I *1298:Y O *D INVx1_ASAP7_75t_R
*CAP
1 *1693:B 0
2 *1298:Y 1.88822e-05
3 *252:10 1.88822e-05
4 *252:10 *2052:A 2.66797e-07
5 *252:10 *1000:10 0
6 *249:25 *252:10 8.2174e-07
*RES
1 *1298:Y *252:10 46.1415 
2 *252:10 *1693:B 34.4 
*END

*D_NET *253 0.000414336
*CONN
*I *2054:A I *D BUFx3_ASAP7_75t_R
*I *1694:A I *D HAxp5_ASAP7_75t_R
*I *1417:Y O *D OA21x2_ASAP7_75t_R
*CAP
1 *2054:A 5.00818e-06
2 *1694:A 1.46152e-05
3 *1417:Y 1.04599e-05
4 *253:16 6.13217e-05
5 *253:14 4.67065e-05
6 *253:12 1.04594e-05
7 *253:8 1.59111e-05
8 *1694:A *1977:A 1.99018e-05
9 *1694:A *746:12 6.7842e-07
10 *2054:A *728:12 3.65131e-06
11 *253:8 *728:8 0
12 *253:8 *882:25 1.41518e-06
13 *253:12 *728:12 5.09299e-06
14 *253:16 *1414:B 0
15 *253:16 *287:50 7.62285e-05
16 *253:16 *288:12 7.0129e-05
17 *253:16 *288:25 4.45472e-06
18 *253:16 *651:10 1.6161e-05
19 *253:16 *1008:10 0
20 *253:16 *1012:10 1.07299e-05
21 *253:16 *1081:50 1.49407e-08
22 *253:16 *1113:10 0
23 *253:16 *1113:16 0
24 *253:16 *1113:27 0
25 *1976:A *253:16 1.5053e-05
26 *223:10 *253:8 0
27 *223:10 *253:16 0
28 *224:10 *253:16 2.63431e-05
*RES
1 *1417:Y *253:8 42.2843 
2 *253:8 *253:12 20.9438 
3 *253:12 *253:14 17.2 
4 *253:14 *253:16 56.3166 
5 *253:16 *1694:A 43.492 
6 *253:12 *2054:A 20.9438 
*END

*D_NET *254 7.50318e-05
*CONN
*I *1977:A I *D BUFx3_ASAP7_75t_R
*I *1694:B I *D HAxp5_ASAP7_75t_R
*I *1388:Y O *D AO21x1_ASAP7_75t_R
*CAP
1 *1977:A 9.78228e-06
2 *1694:B 1.08414e-05
3 *1388:Y 5.99151e-06
4 *254:8 2.66152e-05
5 *1977:A *255:8 1.89962e-06
6 *1977:A *330:10 0
7 *254:8 *288:12 0
8 *254:8 *330:10 0
9 *254:8 *1012:10 0
10 *1694:A *1977:A 1.99018e-05
*RES
1 *1388:Y *254:8 38.9053 
2 *254:8 *1694:B 41.3527 
3 *254:8 *1977:A 43.0989 
*END

*D_NET *255 8.60528e-05
*CONN
*I *1402:B I *D OA21x2_ASAP7_75t_R
*I *1694:CON O *D HAxp5_ASAP7_75t_R
*CAP
1 *1402:B 2.56238e-06
2 *1694:CON 1.3337e-05
3 *255:8 1.58994e-05
4 *255:8 *256:8 1.96231e-05
5 *255:8 *1012:10 2.68933e-07
6 *1402:A2 *1402:B 1.62312e-05
7 *1977:A *255:8 1.89962e-06
8 *226:14 *1402:B 1.62312e-05
*RES
1 *1694:CON *255:8 44.537 
2 *255:8 *1402:B 39.2134 
*END

*D_NET *256 0.000195569
*CONN
*I *1402:A1 I *D OA21x2_ASAP7_75t_R
*I *1405:A I *D OR3x1_ASAP7_75t_R
*I *1694:SN O *D HAxp5_ASAP7_75t_R
*CAP
1 *1402:A1 0
2 *1405:A 0
3 *1694:SN 8.75026e-06
4 *256:22 2.09896e-05
5 *256:12 4.15635e-05
6 *256:8 2.93241e-05
7 *256:8 *1012:10 3.05118e-08
8 *256:22 *1405:B 1.56713e-06
9 *256:22 *330:10 0
10 *256:22 *522:10 3.92018e-06
11 *256:22 *523:8 1.04475e-06
12 *226:14 *256:8 1.53071e-05
13 *226:14 *256:12 3.57058e-05
14 *226:14 *256:22 1.7743e-05
15 *255:8 *256:8 1.96231e-05
*RES
1 *1694:SN *256:8 43.4107 
2 *256:8 *256:12 28.4313 
3 *256:12 *256:22 47.3775 
4 *256:22 *1405:A 17.2 
5 *256:12 *1402:A1 17.2 
*END

*D_NET *257 7.63487e-05
*CONN
*I *2015:A I *D BUFx3_ASAP7_75t_R
*I *1695:A I *D HAxp5_ASAP7_75t_R
*I *1310:Y O *D INVx8_ASAP7_75t_R
*CAP
1 *2015:A 0
2 *1695:A 1.02835e-05
3 *1310:Y 1.43025e-05
4 *257:8 2.4586e-05
5 *1695:A *699:8 0
6 *1695:A *1106:10 1.64764e-06
7 *1695:A *1107:14 6.76305e-06
8 *257:8 *699:8 0
9 *257:8 *1042:8 2.22736e-06
10 *257:8 *1107:14 1.65386e-05
11 *133:8 *257:8 0
*RES
1 *1310:Y *257:8 47.3528 
2 *257:8 *1695:A 43.4107 
3 *257:8 *2015:A 34.4 
*END

*D_NET *258 1.33632e-05
*CONN
*I *1525:A I *D INVx1_ASAP7_75t_R
*I *1695:CON O *D HAxp5_ASAP7_75t_R
*CAP
1 *1525:A 0
2 *1695:CON 6.13625e-06
3 *258:8 6.13625e-06
4 *258:8 *699:8 0
5 *258:8 *1106:10 1.09067e-06
*RES
1 *1695:CON *258:8 38.9053 
2 *258:8 *1525:A 34.4 
*END

*D_NET *259 0.000189905
*CONN
*I *2072:A I *D BUFx3_ASAP7_75t_R
*I *1521:D I *D OR4x1_ASAP7_75t_R
*I *1695:SN O *D HAxp5_ASAP7_75t_R
*CAP
1 *2072:A 1.05422e-05
2 *1521:D 1.86038e-06
3 *1695:SN 6.30197e-06
4 *259:16 2.64859e-05
5 *259:12 5.35117e-05
6 *259:8 4.57303e-05
7 *259:8 *1529:A 1.10561e-06
8 *259:8 *1106:10 1.34329e-05
9 *259:12 *606:8 5.25794e-06
10 *259:16 *699:8 0
11 *1521:A *1521:D 1.25483e-05
12 *30:16 *1521:D 1.25483e-05
13 *106:8 *2072:A 5.79724e-07
14 *133:18 *2072:A 0
15 *133:18 *259:16 0
*RES
1 *1695:SN *259:8 40.0317 
2 *259:8 *259:12 41.2671 
3 *259:12 *259:16 26.2107 
4 *259:16 *1521:D 38.1438 
5 *259:16 *2072:A 41.158 
*END

*D_NET *260 3.80512e-05
*CONN
*I *1696:A I *D HAxp5_ASAP7_75t_R
*I *1317:Y O *D INVx1_ASAP7_75t_R
*CAP
1 *1696:A 0
2 *1317:Y 1.51281e-05
3 *260:10 1.51281e-05
4 *260:10 *724:10 4.10928e-06
5 *260:10 *725:12 3.68565e-06
*RES
1 *1317:Y *260:10 42.5924 
2 *260:10 *1696:A 34.4 
*END

*D_NET *261 3.14281e-05
*CONN
*I *1154:A2 I *D OA21x2_ASAP7_75t_R
*I *1696:CON O *D HAxp5_ASAP7_75t_R
*CAP
1 *1154:A2 1.44334e-05
2 *1696:CON 1.44334e-05
3 *1154:A2 *262:10 1.26378e-06
4 *1154:A2 *367:10 2.52755e-07
5 *1154:A1 *1154:A2 1.04475e-06
*RES
1 *1696:CON *1154:A2 43.492 
*END

*D_NET *262 4.86764e-05
*CONN
*I *1144:B I *D OR2x2_ASAP7_75t_R
*I *1696:SN O *D HAxp5_ASAP7_75t_R
*CAP
1 *1144:B 0
2 *1696:SN 2.37063e-05
3 *262:10 2.37063e-05
4 *1154:A2 *262:10 1.26378e-06
5 *162:8 *262:10 0
*RES
1 *1696:SN *262:10 45.8014 
2 *262:10 *1144:B 34.4 
*END

*D_NET *263 0.000349965
*CONN
*I *1697:A I *D HAxp5_ASAP7_75t_R
*I *2057:A I *D BUFx3_ASAP7_75t_R
*I *1307:Y O *D OA21x2_ASAP7_75t_R
*CAP
1 *1697:A 0
2 *2057:A 2.72446e-06
3 *1307:Y 2.65419e-05
4 *263:23 5.39254e-05
5 *263:10 0.000123115
6 *263:8 9.30071e-05
7 *2057:A *540:12 0
8 *263:10 *1331:B 0
9 *263:10 *1431:B 0
10 *263:10 *467:8 0
11 *263:10 *475:10 0
12 *263:10 *540:12 0
13 *263:10 *1019:28 0
14 *263:10 *1019:48 0
15 *263:10 *1077:8 0
16 *263:10 *1104:8 3.84449e-06
17 *263:23 *540:6 2.16348e-05
18 *263:23 *1092:10 0
19 *263:23 *1112:76 2.52755e-07
20 *263:23 *1112:86 1.02506e-06
21 *6:8 *263:10 2.38942e-05
22 *83:17 *263:10 0
*RES
1 *1307:Y *263:8 45.6313 
2 *263:8 *263:10 54.0639 
3 *263:10 *2057:A 36.0895 
4 *263:10 *263:23 43.4064 
5 *263:23 *1697:A 17.2 
*END

*D_NET *264 0.000251522
*CONN
*I *1697:B I *D HAxp5_ASAP7_75t_R
*I *1974:A I *D BUFx3_ASAP7_75t_R
*I *1396:Y O *D AO21x1_ASAP7_75t_R
*CAP
1 *1697:B 0
2 *1974:A 0
3 *1396:Y 2.05793e-06
4 *264:29 4.66367e-06
5 *264:23 4.8648e-05
6 *264:10 9.18473e-05
7 *264:8 4.99209e-05
8 *264:8 *515:6 2.28976e-06
9 *264:10 *1398:A2 0
10 *264:10 *516:8 0
11 *264:10 *1016:24 0
12 *264:10 *1016:48 1.23016e-06
13 *264:23 *1407:A 0
14 *264:23 *523:18 5.62196e-06
15 *264:23 *539:6 6.7842e-07
16 *264:23 *1009:8 0
17 *264:23 *1079:8 2.69463e-06
18 *264:29 *1428:B 1.18806e-05
19 *264:29 *1112:55 1.38201e-06
20 *12:10 *264:10 2.00223e-05
21 *230:10 *264:10 4.45472e-06
22 *230:10 *264:23 4.12919e-06
23 *230:27 *264:10 0
*RES
1 *1396:Y *264:8 36.0045 
2 *264:8 *264:10 40.548 
3 *264:10 *1974:A 34.4 
4 *264:10 *264:23 41.9473 
5 *264:23 *264:29 38.9053 
6 *264:29 *1697:B 17.2 
*END

*D_NET *265 0.000129323
*CONN
*I *1400:B I *D OA21x2_ASAP7_75t_R
*I *1697:CON O *D HAxp5_ASAP7_75t_R
*CAP
1 *1400:B 0
2 *1697:CON 2.71613e-06
3 *265:14 3.0986e-05
4 *265:8 3.37022e-05
5 *265:8 *540:6 2.12481e-06
6 *265:14 *1401:A2 1.95129e-06
7 *265:14 *1407:A 3.32579e-06
8 *265:14 *1428:B 1.88621e-05
9 *265:14 *266:10 1.82985e-05
10 *265:14 *266:16 1.43162e-05
11 *265:14 *1112:55 3.04043e-06
*RES
1 *1697:CON *265:8 36.0045 
2 *265:8 *265:14 45.6664 
3 *265:14 *1400:B 17.2 
*END

*D_NET *266 0.000203196
*CONN
*I *1407:C I *D OR5x1_ASAP7_75t_R
*I *1400:A1 I *D OA21x2_ASAP7_75t_R
*I *1697:SN O *D HAxp5_ASAP7_75t_R
*CAP
1 *1407:C 1.21997e-06
2 *1400:A1 0
3 *1697:SN 1.16142e-05
4 *266:16 3.02436e-05
5 *266:10 5.52151e-05
6 *266:8 3.53657e-05
7 *1407:C *1407:B 5.22376e-07
8 *266:8 *540:6 8.146e-06
9 *266:10 *297:16 0
10 *266:10 *1112:55 2.15252e-06
11 *266:16 *1400:A2 3.65663e-06
12 *266:16 *1401:A2 9.08513e-06
13 *266:16 *1407:B 9.67723e-06
14 *266:16 *297:16 0
15 *229:6 *1407:C 3.68287e-06
16 *265:14 *266:10 1.82985e-05
17 *265:14 *266:16 1.43162e-05
*RES
1 *1697:SN *266:8 40.2831 
2 *266:8 *266:10 19.7108 
3 *266:10 *266:16 36.259 
4 *266:16 *1400:A1 17.2 
5 *266:10 *1407:C 35.4697 
*END

*D_NET *267 4.90914e-05
*CONN
*I *1698:A I *D HAxp5_ASAP7_75t_R
*I *1586:Y O *D INVx1_ASAP7_75t_R
*CAP
1 *1698:A 0
2 *1586:Y 1.01277e-05
3 *267:8 1.01277e-05
4 *267:8 *269:14 1.66587e-05
5 *267:8 *269:33 8.33296e-06
6 *267:8 *351:16 0
7 *267:8 *791:10 3.29527e-06
8 *267:8 *791:16 5.49212e-07
*RES
1 *1586:Y *267:8 45.6633 
2 *267:8 *1698:A 34.4 
*END

*D_NET *268 0.000219788
*CONN
*I *1135:A2 I *D OAI22x1_ASAP7_75t_R
*I *1134:B I *D AND3x1_ASAP7_75t_R
*I *1698:CON O *D HAxp5_ASAP7_75t_R
*CAP
1 *1135:A2 7.18197e-06
2 *1134:B 0
3 *1698:CON 8.74693e-06
4 *268:14 2.78341e-05
5 *268:10 4.93834e-05
6 *268:8 2.31142e-05
7 *1135:A2 *1135:B1 2.20163e-05
8 *268:8 *1137:B 2.11853e-06
9 *268:8 *269:8 8.87763e-06
10 *268:10 *1135:B1 8.58704e-06
11 *268:10 *341:53 0
12 *268:10 *342:10 9.81516e-06
13 *268:10 *345:12 0
14 *268:14 *1136:A1 6.53938e-06
15 *268:14 *1136:A2 3.90258e-06
16 *268:14 *344:40 9.31704e-06
17 *268:14 *347:8 1.62312e-05
18 *268:14 *349:10 8.73959e-06
19 *268:14 *351:10 6.0212e-06
20 *38:14 *268:14 1.36155e-06
*RES
1 *1698:CON *268:8 40.2831 
2 *268:8 *268:10 10.137 
3 *268:10 *268:14 40.1975 
4 *268:14 *1134:B 17.2 
5 *268:10 *1135:A2 42.2843 
*END

*D_NET *269 0.000264425
*CONN
*I *1133:A I *D INVx1_ASAP7_75t_R
*I *1127:C I *D OR4x1_ASAP7_75t_R
*I *1698:SN O *D HAxp5_ASAP7_75t_R
*CAP
1 *1133:A 0
2 *1127:C 0
3 *1698:SN 1.10422e-05
4 *269:33 1.88891e-05
5 *269:22 1.79438e-05
6 *269:14 4.80689e-05
7 *269:8 6.00564e-05
8 *269:8 *1137:B 6.7842e-07
9 *269:8 *342:6 5.25278e-06
10 *269:14 *791:10 7.24542e-06
11 *269:22 *342:6 0
12 *269:33 *1135:B1 0
13 *269:33 *344:40 0
14 *269:33 *348:10 4.43846e-06
15 *269:33 *349:10 1.15587e-05
16 *269:33 *350:10 2.36401e-05
17 *269:33 *351:10 0
18 *269:33 *791:8 6.7842e-07
19 *269:33 *791:10 1.30867e-05
20 *269:33 *800:10 4.9137e-07
21 *38:6 *269:22 3.68565e-06
22 *42:18 *269:22 3.79923e-06
23 *267:8 *269:14 1.66587e-05
24 *267:8 *269:33 8.33296e-06
25 *268:8 *269:8 8.87763e-06
*RES
1 *1698:SN *269:8 42.4224 
2 *269:8 *269:14 32.9933 
3 *269:14 *269:22 43.6621 
4 *269:22 *1127:C 17.2 
5 *269:8 *269:33 37.3323 
6 *269:33 *1133:A 17.2 
*END

*D_NET *270 3.89061e-05
*CONN
*I *1699:A I *D HAxp5_ASAP7_75t_R
*I *1220:Y O *D INVx1_ASAP7_75t_R
*CAP
1 *1699:A 0
2 *1220:Y 1.12501e-05
3 *270:10 1.12501e-05
4 *270:10 *1129:D 2.0895e-06
5 *270:10 *272:10 4.10928e-06
6 *270:10 *338:14 1.02072e-05
*RES
1 *1220:Y *270:10 41.5228 
2 *270:10 *1699:A 34.4 
*END

*D_NET *271 3.68463e-05
*CONN
*I *1125:B I *D OA21x2_ASAP7_75t_R
*I *1699:CON O *D HAxp5_ASAP7_75t_R
*CAP
1 *1125:B 0
2 *1699:CON 3.94384e-06
3 *271:8 3.94384e-06
4 *271:8 *272:27 8.665e-06
5 *271:8 *296:10 2.02936e-05
*RES
1 *1699:CON *271:8 41.158 
2 *271:8 *1125:B 34.4 
*END

*D_NET *272 0.000186177
*CONN
*I *2003:A I *D BUFx3_ASAP7_75t_R
*I *1129:D I *D OR4x1_ASAP7_75t_R
*I *1699:SN O *D HAxp5_ASAP7_75t_R
*CAP
1 *2003:A 0
2 *1129:D 2.02055e-05
3 *1699:SN 0
4 *272:27 1.70622e-05
5 *272:10 4.89643e-05
6 *272:4 4.5821e-05
7 *1129:D *1129:B 3.90258e-06
8 *272:10 *294:8 1.14451e-05
9 *272:10 *295:14 1.11624e-05
10 *272:10 *296:10 0
11 *272:10 *338:14 3.16931e-06
12 *272:27 *296:10 1.98786e-06
13 *272:27 *340:10 2.54045e-06
14 *272:27 *786:39 2.0915e-06
15 *272:27 *1038:25 2.96155e-06
16 *270:10 *1129:D 2.0895e-06
17 *270:10 *272:10 4.10928e-06
18 *271:8 *272:27 8.665e-06
*RES
1 *1699:SN *272:4 17.2 
2 *272:4 *272:10 38.5683 
3 *272:10 *1129:D 45.0965 
4 *272:4 *272:27 48.2808 
5 *272:27 *2003:A 17.2 
*END

*D_NET *273 0.000159579
*CONN
*I *1700:A I *D HAxp5_ASAP7_75t_R
*I *1580:A1 I *D OA21x2_ASAP7_75t_R
*I *1336:Y O *D INVx1_ASAP7_75t_R
*CAP
1 *1700:A 0
2 *1580:A1 1.8266e-05
3 *1336:Y 5.71039e-06
4 *273:21 2.37884e-05
5 *273:8 4.77648e-05
6 *1580:A1 *645:8 0
7 *1580:A1 *893:25 0
8 *1580:A1 *1018:38 6.58658e-06
9 *1580:A1 *1066:10 9.93857e-06
10 *273:8 *1336:A 5.34278e-06
11 *273:8 *710:28 1.90474e-05
12 *273:8 *1066:10 2.03526e-06
13 *273:21 *1700:B 0
14 *273:21 *2031:A 0
15 *273:21 *275:8 1.53963e-06
16 *273:21 *421:10 1.49407e-08
17 *273:21 *710:28 1.95441e-05
18 *1245:D *273:21 0
19 *141:8 *273:21 0
*RES
1 *1336:Y *273:8 41.3527 
2 *273:8 *1580:A1 49.6055 
3 *273:8 *273:21 35.7845 
4 *273:21 *1700:A 17.2 
*END

*D_NET *274 0.000108447
*CONN
*I *1251:B I *D AND4x1_ASAP7_75t_R
*I *1248:A2 I *D OAI22x1_ASAP7_75t_R
*I *1700:CON O *D HAxp5_ASAP7_75t_R
*CAP
1 *1251:B 0
2 *1248:A2 0
3 *1700:CON 0
4 *274:27 1.4262e-05
5 *274:10 3.72051e-05
6 *274:4 5.14671e-05
7 *274:10 *427:12 3.38822e-06
8 *274:27 *421:20 5.13209e-07
9 *274:27 *427:6 1.61096e-06
*RES
1 *1700:CON *274:4 17.2 
2 *274:4 *274:10 37.3286 
3 *274:10 *1248:A2 34.4 
4 *274:4 *274:27 41.5795 
5 *274:27 *1251:B 17.2 
*END

*D_NET *275 0.000138034
*CONN
*I *1245:B I *D OR4x1_ASAP7_75t_R
*I *1244:A I *D INVx1_ASAP7_75t_R
*I *1700:SN O *D HAxp5_ASAP7_75t_R
*CAP
1 *1245:B 1.2503e-05
2 *1244:A 1.36047e-05
3 *1700:SN 0
4 *275:8 3.60462e-05
5 *275:4 3.49445e-05
6 *1244:A *420:6 1.49313e-05
7 *1245:B *421:10 3.73144e-06
8 *1245:B *426:18 3.15342e-06
9 *275:8 *425:18 7.21451e-07
10 *1245:A *1245:B 8.15645e-06
11 *1245:D *1245:B 1.44167e-06
12 *141:8 *275:8 7.26037e-06
13 *273:21 *275:8 1.53963e-06
*RES
1 *1700:SN *275:4 17.2 
2 *275:4 *275:8 34.6581 
3 *275:8 *1244:A 42.9572 
4 *275:4 *1245:B 25.7572 
*END

*D_NET *276 6.58257e-05
*CONN
*I *1701:A I *D HAxp5_ASAP7_75t_R
*I *1269:Y O *D INVx1_ASAP7_75t_R
*CAP
1 *1701:A 1.08152e-05
2 *1269:Y 1.66821e-05
3 *276:8 2.74973e-05
4 *1701:A *618:22 6.7842e-07
5 *276:8 *278:10 3.30856e-06
6 *276:8 *624:55 1.94229e-07
7 *276:8 *625:8 0
8 *276:8 *1014:10 0
9 *55:8 *276:8 0
10 *79:14 *1701:A 3.65131e-06
11 *79:22 *276:8 2.99852e-06
*RES
1 *1269:Y *276:8 46.2265 
2 *276:8 *1701:A 39.2134 
*END

*D_NET *277 0.000477913
*CONN
*I *1578:A2 I *D OA21x2_ASAP7_75t_R
*I *1588:A I *D INVx1_ASAP7_75t_R
*I *1701:B I *D HAxp5_ASAP7_75t_R
*I *1576:Y O *D AO21x2_ASAP7_75t_R
*CAP
1 *1578:A2 0
2 *1588:A 1.16142e-05
3 *1701:B 1.92428e-05
4 *1576:Y 1.35657e-05
5 *277:40 3.94346e-05
6 *277:25 5.75891e-05
7 *277:14 3.10916e-05
8 *277:10 5.94999e-05
9 *277:8 6.77572e-05
10 *277:8 *598:10 1.95129e-06
11 *277:8 *1015:40 3.73144e-06
12 *277:10 *280:8 0
13 *277:10 *599:10 1.6286e-05
14 *277:10 *703:25 6.33181e-06
15 *277:10 *1015:40 7.04756e-06
16 *277:10 *1015:68 0
17 *277:10 *1047:10 5.51814e-06
18 *277:25 *280:8 9.41947e-07
19 *277:40 *280:8 2.25787e-06
20 *277:40 *631:121 1.93482e-06
21 *277:40 *631:132 1.64764e-06
22 *277:40 *644:10 4.73041e-06
23 *277:40 *1014:10 0
24 *277:40 *1014:25 5.23571e-06
25 *1518:A2 *277:10 4.96929e-06
26 *1648:A *277:10 0
27 *3:8 *277:40 4.87663e-06
28 *79:8 *277:40 0
29 *79:14 *1588:A 8.146e-06
30 *79:14 *1701:B 5.77892e-05
31 *79:14 *277:14 1.62312e-05
32 *79:14 *277:25 0
33 *108:8 *277:10 0
34 *112:10 *277:10 0
35 *136:10 *277:10 2.84908e-05
36 *233:12 *277:10 0
*RES
1 *1576:Y *277:8 40.2831 
2 *277:8 *277:10 47.8691 
3 *277:10 *277:14 22.0134 
4 *277:14 *1701:B 34.8492 
5 *277:14 *277:25 21.1422 
6 *277:25 *1588:A 40.2831 
7 *277:25 *277:40 44.7065 
8 *277:40 *1578:A2 17.2 
*END

*D_NET *278 4.73638e-05
*CONN
*I *1545:E I *D OR5x1_ASAP7_75t_R
*I *1701:SN O *D HAxp5_ASAP7_75t_R
*CAP
1 *1545:E 0
2 *1701:SN 1.70665e-05
3 *278:10 1.70665e-05
4 *278:10 *280:8 0
5 *79:14 *278:10 9.9223e-06
6 *276:8 *278:10 3.30856e-06
*RES
1 *1701:SN *278:10 44.7317 
2 *278:10 *1545:E 34.4 
*END

*D_NET *279 0.000103933
*CONN
*I *1269:A I *D INVx1_ASAP7_75t_R
*I *1979:A I *D BUFx3_ASAP7_75t_R
*I *1268:Y O *D AO21x1_ASAP7_75t_R
*CAP
1 *1269:A 0
2 *1979:A 1.16354e-05
3 *1268:Y 3.0519e-06
4 *279:10 4.74279e-05
5 *279:8 3.88444e-05
6 *279:10 *1025:52 2.9732e-06
*RES
1 *1268:Y *279:8 35.4697 
2 *279:8 *279:10 28.7215 
3 *279:10 *1979:A 40.9029 
4 *279:10 *1269:A 34.4 
*END

*D_NET *280 3.09412e-05
*CONN
*I *1702:B I *D HAxp5_ASAP7_75t_R
*I *1588:Y O *D INVx1_ASAP7_75t_R
*CAP
1 *1702:B 0
2 *1588:Y 1.38707e-05
3 *280:8 1.38707e-05
4 *277:10 *280:8 0
5 *277:25 *280:8 9.41947e-07
6 *277:40 *280:8 2.25787e-06
7 *278:10 *280:8 0
*RES
1 *1588:Y *280:8 44.537 
2 *280:8 *1702:B 34.4 
*END

*D_NET *281 6.60295e-05
*CONN
*I *1703:A I *D HAxp5_ASAP7_75t_R
*I *1335:Y O *D INVx2_ASAP7_75t_R
*CAP
1 *1703:A 8.30972e-06
2 *1335:Y 1.23762e-05
3 *281:8 2.06859e-05
4 *1703:A *1201:A 9.83409e-06
5 *1703:A *283:6 1.45333e-05
6 *1703:A *392:8 2.90269e-07
*RES
1 *1335:Y *281:8 42.2843 
2 *281:8 *1703:A 41.3527 
*END

*D_NET *282 0.000104461
*CONN
*I *1205:C I *D AND3x1_ASAP7_75t_R
*I *1201:A I *D INVx1_ASAP7_75t_R
*I *1703:CON O *D HAxp5_ASAP7_75t_R
*CAP
1 *1205:C 1.68446e-05
2 *1201:A 1.32496e-05
3 *1703:CON 1.6619e-06
4 *282:8 3.17561e-05
5 *1201:A *283:6 3.75e-06
6 *1201:A *392:8 6.07405e-06
7 *1205:C *1206:A2 0
8 *1205:C *394:14 7.35354e-06
9 *1205:C *397:16 0
10 *1205:C *399:20 1.16447e-05
11 *282:8 *399:20 2.29213e-06
12 *1703:A *1201:A 9.83409e-06
*RES
1 *1703:CON *282:8 36.0895 
2 *282:8 *1201:A 44.5617 
3 *282:8 *1205:C 47.8026 
*END

*D_NET *283 0.000375119
*CONN
*I *2002:A I *D BUFx3_ASAP7_75t_R
*I *1197:B I *D OR4x1_ASAP7_75t_R
*I *1703:SN O *D HAxp5_ASAP7_75t_R
*CAP
1 *2002:A 0
2 *1197:B 0
3 *1703:SN 6.4825e-05
4 *283:27 1.18716e-05
5 *283:12 4.82083e-05
6 *283:6 0.000124905
7 *283:6 *1703:B 5.85387e-06
8 *283:6 *756:31 0
9 *283:12 *1173:A 1.41576e-05
10 *283:12 *755:10 4.59037e-06
11 *283:27 *394:10 2.83874e-07
12 *283:27 *394:14 3.73144e-06
13 *1197:A *283:12 9.5501e-06
14 *1201:A *283:6 3.75e-06
15 *1703:A *283:6 1.45333e-05
16 *64:8 *283:6 5.07197e-05
17 *64:8 *283:12 2.12276e-06
18 *65:6 *283:12 1.06154e-05
19 *65:21 *283:27 0
20 *82:8 *283:12 3.37709e-06
21 *167:10 *283:12 2.02432e-06
*RES
1 *1703:SN *283:6 43.4064 
2 *283:6 *283:12 41.0441 
3 *283:12 *1197:B 34.4 
4 *283:6 *283:27 41.5795 
5 *283:27 *2002:A 17.2 
*END

*D_NET *284 3.80344e-05
*CONN
*I *1704:A I *D HAxp5_ASAP7_75t_R
*I *1266:Y O *D INVx1_ASAP7_75t_R
*CAP
1 *1704:A 0
2 *1266:Y 9.82051e-06
3 *284:8 9.82051e-06
4 *284:8 *751:14 7.84037e-07
5 *284:8 *751:23 1.25103e-05
6 *284:8 *759:16 5.09907e-06
*RES
1 *1266:Y *284:8 44.537 
2 *284:8 *1704:A 34.4 
*END

*D_NET *285 7.91389e-05
*CONN
*I *1195:A1 I *D OA21x2_ASAP7_75t_R
*I *1704:CON O *D HAxp5_ASAP7_75t_R
*CAP
1 *1195:A1 3.46912e-05
2 *1704:CON 3.46912e-05
3 *1195:A1 *286:10 9.75645e-06
*RES
1 *1704:CON *1195:A1 46.701 
*END

*D_NET *286 9.34867e-05
*CONN
*I *1192:A I *D OR2x2_ASAP7_75t_R
*I *1198:B I *D OR4x1_ASAP7_75t_R
*I *1704:SN O *D HAxp5_ASAP7_75t_R
*CAP
1 *1192:A 1.04578e-05
2 *1198:B 1.07959e-05
3 *1704:SN 1.03276e-05
4 *286:10 3.15813e-05
5 *1192:A *399:54 3.05836e-06
6 *286:10 *399:54 1.28895e-05
7 *1195:A1 *286:10 9.75645e-06
8 *1198:C *1192:A 6.49184e-07
9 *1198:C *1198:B 8.75221e-07
10 *91:23 *1192:A 3.09538e-06
*RES
1 *1704:SN *286:10 41.5795 
2 *286:10 *1198:B 38.6786 
3 *286:10 *1192:A 40.9029 
*END

*D_NET *287 0.000474516
*CONN
*I *2058:A I *D BUFx3_ASAP7_75t_R
*I *1705:B I *D HAxp5_ASAP7_75t_R
*I *1261:Y O *D OA21x2_ASAP7_75t_R
*CAP
1 *2058:A 0
2 *1705:B 1.91737e-05
3 *1261:Y 8.94675e-06
4 *287:50 4.4566e-05
5 *287:46 3.70537e-05
6 *287:42 1.52556e-05
7 *287:32 8.33133e-05
8 *287:20 9.88753e-05
9 *287:8 2.8103e-05
10 *1705:B *1705:A 3.56177e-06
11 *1705:B *288:25 3.48165e-06
12 *1705:B *290:10 1.02506e-06
13 *287:8 *436:10 2.59962e-07
14 *287:8 *711:28 4.26751e-07
15 *287:20 *700:20 0
16 *287:20 *712:18 2.31967e-06
17 *287:32 *828:28 0
18 *287:32 *831:28 2.50851e-06
19 *287:32 *1081:63 5.91419e-06
20 *287:42 *534:10 1.48586e-06
21 *287:42 *835:10 4.83862e-06
22 *287:42 *1081:50 9.36411e-07
23 *287:46 *1954:A 2.12481e-06
24 *287:46 *835:10 2.70479e-05
25 *287:50 *529:48 5.42512e-06
26 *287:50 *1113:27 1.64348e-06
27 *223:10 *287:50 0
28 *223:12 *287:50 0
29 *253:16 *287:50 7.62285e-05
*RES
1 *1261:Y *287:8 40.1255 
2 *287:8 *287:20 45.9992 
3 *287:20 *287:32 47.5506 
4 *287:32 *287:42 48.6581 
5 *287:42 *287:46 26.292 
6 *287:46 *287:50 43.1056 
7 *287:50 *1705:B 28.4313 
8 *287:42 *2058:A 17.2 
*END

*D_NET *288 0.000341259
*CONN
*I *1978:A I *D BUFx3_ASAP7_75t_R
*I *1705:A I *D HAxp5_ASAP7_75t_R
*I *1386:Y O *D AO21x2_ASAP7_75t_R
*CAP
1 *1978:A 1.35499e-05
2 *1705:A 2.86075e-06
3 *1386:Y 7.73384e-06
4 *288:25 3.54502e-05
5 *288:12 4.1774e-05
6 *288:8 2.47469e-05
7 *1705:A *290:10 3.56177e-06
8 *288:12 *746:20 1.62133e-05
9 *288:12 *1012:10 8.40773e-05
10 *288:25 *1414:B 1.02307e-05
11 *288:25 *290:10 1.35684e-06
12 *1705:B *1705:A 3.56177e-06
13 *1705:B *288:25 3.48165e-06
14 *1976:A *288:25 6.95214e-06
15 *223:12 *288:25 5.00394e-06
16 *224:10 *288:12 2.20128e-06
17 *224:10 *288:25 6.33206e-07
18 *226:8 *1978:A 3.28582e-06
19 *253:16 *288:12 7.0129e-05
20 *253:16 *288:25 4.45472e-06
21 *254:8 *288:12 0
*RES
1 *1386:Y *288:8 37.0741 
2 *288:8 *288:12 48.1741 
3 *288:12 *1705:A 19.8741 
4 *288:12 *288:25 37.2189 
5 *288:25 *1978:A 43.492 
*END

*D_NET *289 5.06108e-05
*CONN
*I *1403:B I *D OA211x2_ASAP7_75t_R
*I *1705:CON O *D HAxp5_ASAP7_75t_R
*CAP
1 *1403:B 6.5675e-06
2 *1705:CON 8.12659e-06
3 *289:8 1.46941e-05
4 *1403:B *1403:C 3.90258e-06
5 *1403:B *290:18 6.44983e-06
6 *289:8 *290:10 3.95845e-06
7 *289:8 *331:25 5.79724e-07
8 *289:8 *520:14 6.33206e-06
9 *289:8 *1012:10 0
*RES
1 *1705:CON *289:8 41.158 
2 *289:8 *1403:B 39.2134 
*END

*D_NET *290 0.000184863
*CONN
*I *1403:A1 I *D OA211x2_ASAP7_75t_R
*I *1405:B I *D OR3x1_ASAP7_75t_R
*I *1705:SN O *D HAxp5_ASAP7_75t_R
*CAP
1 *1403:A1 0
2 *1405:B 7.21762e-06
3 *1705:SN 2.05654e-05
4 *290:30 2.20993e-05
5 *290:22 1.6381e-05
6 *290:18 2.5121e-05
7 *290:10 4.4187e-05
8 *1405:B *523:8 6.70433e-06
9 *290:18 *330:10 0
10 *290:18 *331:25 5.04414e-06
11 *290:18 *520:22 8.33296e-06
12 *290:30 *330:10 1.12055e-06
13 *290:30 *520:14 5.82688e-07
14 *290:30 *520:22 6.7842e-07
15 *1403:B *290:18 6.44983e-06
16 *1705:A *290:10 3.56177e-06
17 *1705:B *290:10 1.02506e-06
18 *226:14 *1405:B 8.90926e-06
19 *256:22 *1405:B 1.56713e-06
20 *288:25 *290:10 1.35684e-06
21 *289:8 *290:10 3.95845e-06
*RES
1 *1705:SN *290:10 44.7317 
2 *290:10 *290:18 47.4909 
3 *290:18 *290:22 18.2696 
4 *290:22 *290:30 43.354 
5 *290:30 *1405:B 25.2224 
6 *290:22 *1403:A1 17.2 
*END

*D_NET *291 5.89441e-05
*CONN
*I *1706:A I *D HAxp5_ASAP7_75t_R
*I *1587:Y O *D INVx5_ASAP7_75t_R
*CAP
1 *1706:A 1.31448e-05
2 *1587:Y 1.02667e-05
3 *291:8 2.34115e-05
4 *1706:A *293:10 1.21211e-05
5 *291:8 *1036:12 0
*RES
1 *1587:Y *291:8 42.2843 
2 *291:8 *1706:A 43.492 
*END

*D_NET *292 5.4546e-05
*CONN
*I *1146:A I *D INVx1_ASAP7_75t_R
*I *1706:CON O *D HAxp5_ASAP7_75t_R
*CAP
1 *1146:A 0
2 *1706:CON 0
3 *292:10 1.78933e-05
4 *292:6 1.78933e-05
5 *292:10 *2082:A 1.1174e-05
6 *292:10 *729:53 0
7 *292:10 *730:48 7.84037e-07
8 *292:10 *1036:12 6.80131e-06
9 *32:8 *292:10 0
10 *33:10 *292:10 0
*RES
1 *1706:CON *292:6 34.4 
2 *292:6 *292:10 33.5318 
3 *292:10 *1146:A 17.2 
*END

*D_NET *293 6.62448e-05
*CONN
*I *2001:A I *D BUFx3_ASAP7_75t_R
*I *1706:SN O *D HAxp5_ASAP7_75t_R
*CAP
1 *2001:A 1.13811e-05
2 *1706:SN 1.25255e-05
3 *293:10 2.39066e-05
4 *293:10 *2082:A 2.20128e-06
5 *293:10 *1036:12 4.10928e-06
6 *1706:A *293:10 1.21211e-05
*RES
1 *1706:SN *293:10 42.6491 
2 *293:10 *2001:A 40.2831 
*END

*D_NET *294 8.77209e-05
*CONN
*I *1707:A I *D HAxp5_ASAP7_75t_R
*I *1262:Y O *D INVx1_ASAP7_75t_R
*CAP
1 *1707:A 5.45193e-06
2 *1262:Y 2.98108e-05
3 *294:8 3.52627e-05
4 *1707:A *295:14 5.23722e-06
5 *1707:A *296:10 5.13209e-07
6 *272:10 *294:8 1.14451e-05
*RES
1 *1262:Y *294:8 45.6313 
2 *294:8 *1707:A 38.9053 
*END

*D_NET *295 8.05754e-05
*CONN
*I *1125:A1 I *D OA21x2_ASAP7_75t_R
*I *1707:CON O *D HAxp5_ASAP7_75t_R
*CAP
1 *1125:A1 0
2 *1707:CON 6.83251e-06
3 *295:14 2.25607e-05
4 *295:8 2.93932e-05
5 *295:14 *296:10 0
6 *295:14 *795:8 0
7 *295:14 *796:39 4.56767e-06
8 *295:14 *1038:33 8.2174e-07
9 *1707:A *295:14 5.23722e-06
10 *272:10 *295:14 1.11624e-05
*RES
1 *1707:CON *295:8 38.1438 
2 *295:8 *295:14 35.7278 
3 *295:14 *1125:A1 17.2 
*END

*D_NET *296 0.000290058
*CONN
*I *1124:A I *D OR2x2_ASAP7_75t_R
*I *1129:B I *D OR4x1_ASAP7_75t_R
*I *1707:SN O *D HAxp5_ASAP7_75t_R
*CAP
1 *1124:A 1.11734e-05
2 *1129:B 1.83832e-06
3 *1707:SN 0
4 *296:16 2.49141e-05
5 *296:10 6.21884e-05
6 *296:6 2.79392e-05
7 *1124:A *1124:B 1.46661e-05
8 *1124:A *339:6 3.76978e-05
9 *296:10 *338:14 0
10 *296:10 *340:10 5.06565e-06
11 *296:10 *1038:25 0
12 *296:10 *1038:33 8.33296e-06
13 *296:16 *338:14 1.18451e-05
14 *296:16 *339:6 2.01215e-05
15 *296:16 *339:14 3.89037e-06
16 *1129:D *1129:B 3.90258e-06
17 *1707:A *296:10 5.13209e-07
18 *71:10 *296:16 1.64888e-05
19 *72:8 *296:16 1.71993e-05
20 *271:8 *296:10 2.02936e-05
21 *272:10 *296:10 0
22 *272:27 *296:10 1.98786e-06
23 *295:14 *296:10 0
*RES
1 *1707:SN *296:6 34.4 
2 *296:6 *296:10 38.6003 
3 *296:10 *296:16 37.2719 
4 *296:16 *1129:B 35.4697 
5 *296:10 *1124:A 27.3617 
*END

*D_NET *297 0.000190386
*CONN
*I *2056:A I *D BUFx3_ASAP7_75t_R
*I *1708:A I *D HAxp5_ASAP7_75t_R
*I *1323:Y O *D OA21x2_ASAP7_75t_R
*CAP
1 *2056:A 2.73765e-06
2 *1708:A 0
3 *1323:Y 0
4 *297:16 6.4539e-05
5 *297:14 6.4539e-05
6 *297:12 2.68134e-05
7 *297:6 2.40757e-05
8 *297:12 *1010:12 0
9 *297:12 *1112:42 0
10 *297:12 *1112:55 0
11 *297:16 *1407:B 2.1664e-06
12 *297:16 *2059:A 0
13 *297:16 *299:8 4.42421e-06
14 *297:16 *300:10 1.09067e-06
15 *297:16 *1010:12 0
16 *297:16 *1112:55 0
17 *198:12 *297:16 0
18 *199:12 *297:16 0
19 *199:18 *297:16 0
20 *266:10 *297:16 0
21 *266:16 *297:16 0
*RES
1 *1323:Y *297:6 34.4 
2 *297:6 *297:12 35.1363 
3 *297:12 *297:14 17.2 
4 *297:14 *297:16 46.7428 
5 *297:16 *1708:A 34.4 
6 *297:12 *2056:A 18.8045 
*END

*D_NET *298 0.000137167
*CONN
*I *2059:A I *D BUFx3_ASAP7_75t_R
*I *1708:B I *D HAxp5_ASAP7_75t_R
*I *1394:Y O *D AO21x1_ASAP7_75t_R
*CAP
1 *2059:A 1.58003e-05
2 *1708:B 4.73531e-06
3 *1394:Y 3.38134e-06
4 *298:10 5.34412e-05
5 *298:8 3.62869e-05
6 *1708:B *300:6 6.78445e-06
7 *2059:A *1404:A2 2.12481e-06
8 *2059:A *299:8 4.97342e-06
9 *2059:A *300:10 0
10 *298:8 *1394:B 2.20493e-06
11 *298:10 *1392:A1 0
12 *298:10 *300:10 0
13 *298:10 *1016:10 0
14 *298:10 *1016:16 0
15 *298:10 *1016:61 1.18898e-06
16 *199:12 *2059:A 2.73415e-06
17 *199:12 *298:10 3.51107e-06
18 *297:16 *2059:A 0
*RES
1 *1394:Y *298:8 36.5393 
2 *298:8 *298:10 24.7793 
3 *298:10 *1708:B 39.2134 
4 *298:10 *2059:A 47.2678 
*END

*D_NET *299 3.43275e-05
*CONN
*I *1401:B I *D OA21x2_ASAP7_75t_R
*I *1708:CON O *D HAxp5_ASAP7_75t_R
*CAP
1 *1401:B 4.84254e-06
2 *1708:CON 7.62239e-06
3 *299:8 1.24649e-05
4 *299:8 *300:10 0
5 *2059:A *299:8 4.97342e-06
6 *297:16 *299:8 4.42421e-06
*RES
1 *1708:CON *299:8 42.2843 
2 *299:8 *1401:B 37.0741 
*END

*D_NET *300 0.000155968
*CONN
*I *1407:B I *D OR5x1_ASAP7_75t_R
*I *1401:A1 I *D OA21x2_ASAP7_75t_R
*I *1708:SN O *D HAxp5_ASAP7_75t_R
*CAP
1 *1407:B 1.92283e-05
2 *1401:A1 0
3 *1708:SN 3.48884e-05
4 *300:10 3.28418e-05
5 *300:6 4.85019e-05
6 *1407:C *1407:B 5.22376e-07
7 *1708:B *300:6 6.78445e-06
8 *2059:A *300:10 0
9 *229:6 *1407:B 2.66797e-07
10 *266:16 *1407:B 9.67723e-06
11 *297:16 *1407:B 2.1664e-06
12 *297:16 *300:10 1.09067e-06
13 *298:10 *300:10 0
14 *299:8 *300:10 0
*RES
1 *1708:SN *300:6 33.7796 
2 *300:6 *300:10 27.337 
3 *300:10 *1401:A1 34.4 
4 *300:10 *1407:B 46.0281 
*END

*D_NET *301 8.36608e-05
*CONN
*I *1709:A I *D HAxp5_ASAP7_75t_R
*I *1358:Y O *D INVx1_ASAP7_75t_R
*CAP
1 *1709:A 1.52712e-05
2 *1358:Y 1.16921e-05
3 *301:8 2.69634e-05
4 *1709:A *745:18 2.62902e-05
5 *1709:A *745:26 7.02918e-07
6 *301:8 *736:12 2.741e-06
*RES
1 *1358:Y *301:8 39.2134 
2 *301:8 *1709:A 47.3528 
*END

*D_NET *302 8.72996e-05
*CONN
*I *1370:B I *D OA21x2_ASAP7_75t_R
*I *1709:CON O *D HAxp5_ASAP7_75t_R
*CAP
1 *1370:B 0
2 *1709:CON 0
3 *302:12 3.09592e-05
4 *302:6 3.09592e-05
5 *302:12 *303:8 9.56586e-07
6 *302:12 *495:8 8.22301e-06
7 *1370:A2 *302:12 2.12276e-06
8 *216:10 *302:12 0
9 *218:8 *302:12 9.38684e-06
10 *218:12 *302:12 4.69205e-06
*RES
1 *1709:CON *302:6 34.4 
2 *302:6 *302:12 39.4149 
3 *302:12 *1370:B 17.2 
*END

*D_NET *303 0.000294966
*CONN
*I *1370:A1 I *D OA21x2_ASAP7_75t_R
*I *1367:C I *D OR4x1_ASAP7_75t_R
*I *1709:SN O *D HAxp5_ASAP7_75t_R
*CAP
1 *1370:A1 1.75992e-06
2 *1367:C 0
3 *1709:SN 6.875e-06
4 *303:28 2.23581e-06
5 *303:22 3.87227e-05
6 *303:16 4.99453e-05
7 *303:14 4.33648e-05
8 *303:8 3.85413e-05
9 *303:16 *1682:A 3.76882e-06
10 *303:16 *744:41 1.70708e-06
11 *303:16 *747:10 4.26751e-07
12 *303:22 *1373:A2 1.70367e-05
13 *303:22 *498:20 6.14564e-05
14 *303:28 *310:8 2.58388e-06
15 *215:8 *303:22 1.95243e-05
16 *216:10 *303:16 2.17055e-06
17 *218:12 *1370:A1 3.89037e-06
18 *302:12 *303:8 9.56586e-07
*RES
1 *1709:SN *303:8 39.1869 
2 *303:8 *303:14 43.9233 
3 *303:14 *303:16 8.72907 
4 *303:16 *303:22 38.4405 
5 *303:22 *303:28 36.3711 
6 *303:28 *1367:C 17.2 
7 *303:16 *1370:A1 35.4697 
*END

*D_NET *304 2.88339e-05
*CONN
*I *1710:A I *D HAxp5_ASAP7_75t_R
*I *1272:Y O *D NOR2x1_ASAP7_75t_R
*CAP
1 *1710:A 1.44169e-05
2 *1272:Y 1.44169e-05
3 *1710:A *418:14 0
*RES
1 *1272:Y *1710:A 41.3527 
*END

*D_NET *305 0.000311506
*CONN
*I *1710:B I *D HAxp5_ASAP7_75t_R
*I *1964:A I *D BUFx3_ASAP7_75t_R
*I *1596:Y O *D AO21x2_ASAP7_75t_R
*CAP
1 *1710:B 0
2 *1964:A 0
3 *1596:Y 0
4 *305:25 5.43544e-05
5 *305:23 7.60651e-05
6 *305:14 2.48472e-05
7 *305:4 4.65579e-05
8 *305:14 *1598:B 2.20493e-06
9 *305:14 *821:8 1.32788e-06
10 *305:14 *999:10 6.72417e-07
11 *305:14 *1017:22 2.96818e-06
12 *305:25 *1503:C 7.96585e-06
13 *305:25 *324:19 0
14 *305:25 *486:40 3.86464e-07
15 *305:25 *487:10 4.39023e-06
16 *305:25 *487:20 1.47844e-05
17 *305:25 *591:8 1.99278e-05
18 *1485:B *305:25 2.00151e-05
19 *185:10 *305:14 8.2174e-07
20 *187:10 *305:25 1.86563e-05
21 *190:14 *305:25 0
22 *207:10 *305:25 8.51183e-06
23 *207:25 *305:25 7.0488e-06
*RES
1 *1596:Y *305:4 17.2 
2 *305:4 *305:14 47.4625 
3 *305:14 *1964:A 17.2 
4 *305:4 *305:23 26.292 
5 *305:23 *305:25 50.1218 
6 *305:25 *1710:B 34.4 
*END

*D_NET *306 9.76115e-05
*CONN
*I *1968:A I *D BUFx3_ASAP7_75t_R
*I *1481:C I *D OA211x2_ASAP7_75t_R
*I *1710:CON O *D HAxp5_ASAP7_75t_R
*CAP
1 *1968:A 0
2 *1481:C 1.12898e-05
3 *1710:CON 7.38876e-06
4 *306:8 1.86785e-05
5 *1481:C *487:10 3.46167e-05
6 *306:8 *487:10 2.56377e-05
*RES
1 *1710:CON *306:8 43.4107 
2 *306:8 *1481:C 46.733 
3 *306:8 *1968:A 34.4 
*END

*D_NET *307 5.50878e-05
*CONN
*I *2048:A I *D BUFx3_ASAP7_75t_R
*I *1484:A I *D INVx1_ASAP7_75t_R
*I *1710:SN O *D HAxp5_ASAP7_75t_R
*CAP
1 *2048:A 0
2 *1484:A 0
3 *1710:SN 1.96111e-05
4 *307:12 5.87814e-06
5 *307:6 2.54893e-05
6 *307:12 *1003:14 4.10928e-06
7 *219:10 *307:12 0
*RES
1 *1710:SN *307:6 29.501 
2 *307:6 *307:12 38.9053 
3 *307:12 *1484:A 17.2 
4 *307:6 *2048:A 17.2 
*END

*D_NET *308 2.6923e-05
*CONN
*I *1711:A I *D HAxp5_ASAP7_75t_R
*I *1330:Y O *D INVx1_ASAP7_75t_R
*CAP
1 *1711:A 5.2544e-06
2 *1330:Y 7.58646e-06
3 *308:8 1.28409e-05
4 *1711:A *309:10 9.425e-07
5 *308:8 *746:26 2.98814e-07
6 *213:8 *308:8 0
*RES
1 *1330:Y *308:8 38.9053 
2 *308:8 *1711:A 37.0741 
*END

*D_NET *309 0.00014116
*CONN
*I *1371:A1 I *D AO21x1_ASAP7_75t_R
*I *1711:CON O *D HAxp5_ASAP7_75t_R
*CAP
1 *1371:A1 0
2 *1711:CON 9.93495e-06
3 *309:22 4.06465e-05
4 *309:16 4.95925e-05
5 *309:10 1.8881e-05
6 *309:22 *1367:A 3.72303e-06
7 *309:22 *1372:A 6.36462e-06
8 *1371:B *309:22 0
9 *1711:A *309:10 9.425e-07
10 *213:8 *309:22 5.63702e-07
11 *214:8 *309:22 0
12 *218:20 *309:16 3.91501e-06
13 *218:28 *309:10 5.63702e-07
14 *218:28 *309:22 6.03238e-06
*RES
1 *1711:CON *309:10 40.9596 
2 *309:10 *309:16 39.2134 
3 *309:16 *309:22 48.0324 
4 *309:22 *1371:A1 17.2 
*END

*D_NET *310 7.60157e-05
*CONN
*I *1367:B I *D OR4x1_ASAP7_75t_R
*I *1369:A I *D OR2x2_ASAP7_75t_R
*I *1711:SN O *D HAxp5_ASAP7_75t_R
*CAP
1 *1367:B 7.97651e-06
2 *1369:A 1.01588e-05
3 *1711:SN 9.52377e-06
4 *310:8 2.76591e-05
5 *1369:A *492:8 5.23722e-06
6 *310:8 *502:12 0
7 *1369:B *1369:A 1.02895e-05
8 *218:28 *1367:B 1.7689e-06
9 *218:28 *310:8 8.18065e-07
10 *303:28 *310:8 2.58388e-06
*RES
1 *1711:SN *310:8 42.2843 
2 *310:8 *1369:A 42.7058 
3 *310:8 *1367:B 38.6786 
*END

*D_NET *311 7.79044e-05
*CONN
*I *1985:A I *D BUFx3_ASAP7_75t_R
*I *1712:B I *D HAxp5_ASAP7_75t_R
*I *1318:Y O *D INVx8_ASAP7_75t_R
*CAP
1 *1985:A 3.04803e-06
2 *1712:B 1.34595e-05
3 *1318:Y 1.3395e-05
4 *311:8 2.99025e-05
5 *1712:B *312:10 0
6 *1712:B *691:10 1.52565e-05
7 *1985:A *691:10 2.84286e-06
*RES
1 *1318:Y *311:8 40.2831 
2 *311:8 *1712:B 47.3528 
3 *311:8 *1985:A 37.2158 
*END

*D_NET *312 4.60282e-05
*CONN
*I *1286:A I *D INVx1_ASAP7_75t_R
*I *1712:CON O *D HAxp5_ASAP7_75t_R
*CAP
1 *1286:A 6.35452e-06
2 *1712:CON 1.66596e-05
3 *312:10 2.30141e-05
4 *1712:B *312:10 0
*RES
1 *1712:CON *312:10 44.9585 
2 *312:10 *1286:A 37.0741 
*END

*D_NET *313 0.000164256
*CONN
*I *1282:B I *D OR4x1_ASAP7_75t_R
*I *2074:A I *D BUFx3_ASAP7_75t_R
*I *1712:SN O *D HAxp5_ASAP7_75t_R
*CAP
1 *1282:B 1.57065e-05
2 *2074:A 0
3 *1712:SN 3.73031e-05
4 *313:10 3.31186e-05
5 *313:8 5.47152e-05
6 *1282:B *1291:A1 1.2638e-05
7 *1282:B *449:6 8.87763e-06
8 *1282:B *457:12 8.06799e-07
9 *313:10 *453:10 0
10 *313:10 *457:12 1.09067e-06
11 *313:10 *1109:17 0
*RES
1 *1712:SN *313:8 49.9099 
2 *313:8 *313:10 12.9528 
3 *313:10 *2074:A 34.4 
4 *313:10 *1282:B 46.0848 
*END

*D_NET *314 4.62736e-05
*CONN
*I *1713:B I *D HAxp5_ASAP7_75t_R
*I *1584:Y O *D NOR2x1_ASAP7_75t_R
*CAP
1 *1713:B 0
2 *1584:Y 1.72994e-05
3 *314:8 1.72994e-05
4 *314:8 *315:25 0
5 *314:8 *630:18 0
6 *314:8 *632:10 8.0991e-06
7 *314:8 *829:10 3.57576e-06
*RES
1 *1584:Y *314:8 47.3528 
2 *314:8 *1713:B 34.4 
*END

*D_NET *315 0.000235087
*CONN
*I *1553:A1 I *D OA21x2_ASAP7_75t_R
*I *1713:A I *D HAxp5_ASAP7_75t_R
*I *1535:Y O *D AO21x2_ASAP7_75t_R
*CAP
1 *1553:A1 0
2 *1713:A 4.64719e-06
3 *1535:Y 7.60465e-06
4 *315:25 2.43942e-05
5 *315:10 5.17904e-05
6 *315:8 3.03537e-05
7 *1713:A *317:10 1.32074e-05
8 *315:8 *1535:B 3.13426e-06
9 *315:8 *1116:6 0
10 *315:10 *316:12 4.18184e-05
11 *315:10 *317:29 0
12 *315:10 *698:10 3.25708e-06
13 *315:10 *707:40 8.96443e-08
14 *315:10 *707:46 8.96443e-08
15 *315:10 *852:33 5.64505e-06
16 *315:25 *1553:B 1.60115e-05
17 *315:25 *316:12 6.85075e-06
18 *315:25 *632:10 0
19 *315:25 *829:10 2.61935e-05
20 *131:8 *315:10 0
21 *144:8 *315:10 0
22 *314:8 *315:25 0
*RES
1 *1535:Y *315:8 38.1438 
2 *315:8 *315:10 21.4003 
3 *315:10 *1713:A 38.1438 
4 *315:10 *315:25 39.2165 
5 *315:25 *1553:A1 17.2 
*END

*D_NET *316 9.86588e-05
*CONN
*I *1540:B I *D OA211x2_ASAP7_75t_R
*I *1713:CON O *D HAxp5_ASAP7_75t_R
*CAP
1 *1540:B 0
2 *1713:CON 0
3 *316:12 1.83391e-05
4 *316:6 1.83391e-05
5 *316:12 *317:10 8.13747e-06
6 *316:12 *317:29 2.12091e-06
7 *242:23 *316:12 3.05302e-06
8 *315:10 *316:12 4.18184e-05
9 *315:25 *316:12 6.85075e-06
*RES
1 *1713:CON *316:6 34.4 
2 *316:6 *316:12 37.2756 
3 *316:12 *1540:B 17.2 
*END

*D_NET *317 0.000112954
*CONN
*I *1540:A1 I *D OA211x2_ASAP7_75t_R
*I *1544:C I *D OR3x1_ASAP7_75t_R
*I *1713:SN O *D HAxp5_ASAP7_75t_R
*CAP
1 *1540:A1 0
2 *1544:C 1.00116e-05
3 *1713:SN 1.6419e-05
4 *317:29 1.32291e-05
5 *317:14 2.79514e-05
6 *317:10 2.11296e-05
7 *317:29 *624:8 7.47402e-07
8 *1713:A *317:10 1.32074e-05
9 *315:10 *317:29 0
10 *316:12 *317:10 8.13747e-06
11 *316:12 *317:29 2.12091e-06
*RES
1 *1713:SN *317:10 44.9018 
2 *317:10 *317:14 19.8741 
3 *317:14 *1544:C 23.0831 
4 *317:14 *317:29 44.4803 
5 *317:29 *1540:A1 17.2 
*END

*D_NET *318 4.23356e-05
*CONN
*I *1714:A I *D HAxp5_ASAP7_75t_R
*I *1582:Y O *D INVx1_ASAP7_75t_R
*CAP
1 *1714:A 0
2 *1582:Y 1.74329e-05
3 *318:8 1.74329e-05
4 *318:8 *1714:B 6.13287e-06
5 *318:8 *320:10 7.84037e-07
6 *318:8 *416:10 5.52807e-07
7 *318:8 *1023:12 0
*RES
1 *1582:Y *318:8 47.3528 
2 *318:8 *1714:A 34.4 
*END

*D_NET *319 0.000175812
*CONN
*I *1234:C I *D AND3x1_ASAP7_75t_R
*I *1235:A2 I *D OAI22x1_ASAP7_75t_R
*I *1714:CON O *D HAxp5_ASAP7_75t_R
*CAP
1 *1234:C 0
2 *1235:A2 0
3 *1714:CON 3.65422e-06
4 *319:23 2.31598e-05
5 *319:10 4.45918e-05
6 *319:8 2.50862e-05
7 *319:8 *320:10 5.51397e-07
8 *319:10 *412:10 1.60967e-05
9 *319:10 *414:8 1.21471e-05
10 *319:10 *415:12 1.33095e-05
11 *319:10 *415:23 2.25787e-06
12 *319:10 *416:10 1.31716e-05
13 *319:23 *1234:B 1.87296e-05
14 *319:23 *412:10 3.05617e-06
15 *1234:A *319:23 0
*RES
1 *1714:CON *319:8 36.0045 
2 *319:8 *319:10 22.5266 
3 *319:10 *1235:A2 34.4 
4 *319:10 *319:23 37.0772 
5 *319:23 *1234:C 17.2 
*END

*D_NET *320 0.000167392
*CONN
*I *1233:A I *D INVx1_ASAP7_75t_R
*I *1227:D I *D OR4x1_ASAP7_75t_R
*I *1714:SN O *D HAxp5_ASAP7_75t_R
*CAP
1 *1233:A 0
2 *1227:D 1.97486e-06
3 *1714:SN 1.12198e-05
4 *320:26 4.07749e-05
5 *320:20 3.88e-05
6 *320:18 1.87762e-05
7 *320:10 2.9996e-05
8 *320:10 *416:10 3.47607e-06
9 *320:18 *416:10 0
10 *320:26 *406:14 9.94583e-06
11 *1231:A *320:26 0
12 *124:10 *320:26 6.45454e-06
13 *124:25 *320:26 5.37866e-07
14 *171:8 *320:18 0
15 *171:8 *320:26 0
16 *173:12 *320:26 4.1009e-06
17 *318:8 *320:10 7.84037e-07
18 *319:8 *320:10 5.51397e-07
*RES
1 *1714:SN *320:10 42.0293 
2 *320:10 *320:18 45.9147 
3 *320:18 *320:20 17.2 
4 *320:20 *320:26 38.3983 
5 *320:26 *1227:D 35.4697 
6 *320:20 *1233:A 17.2 
*END

*D_NET *321 1.71125e-05
*CONN
*I *1715:A I *D HAxp5_ASAP7_75t_R
*I *1305:Y O *D NOR2x1_ASAP7_75t_R
*CAP
1 *1715:A 8.55627e-06
2 *1305:Y 8.55627e-06
*RES
1 *1305:Y *1715:A 38.1438 
*END

*D_NET *322 0.000278256
*CONN
*I *1715:B I *D HAxp5_ASAP7_75t_R
*I *1496:A2 I *D OA21x2_ASAP7_75t_R
*I *1494:Y O *D AO21x2_ASAP7_75t_R
*CAP
1 *1715:B 5.33313e-06
2 *1496:A2 0
3 *1494:Y 0
4 *322:29 5.74865e-05
5 *322:27 6.35596e-05
6 *322:18 8.13917e-07
7 *322:12 2.84571e-05
8 *322:4 3.90495e-05
9 *322:12 *688:23 0
10 *322:12 *972:18 1.58111e-06
11 *322:12 *974:18 4.01828e-06
12 *322:18 *583:68 2.57456e-06
13 *322:18 *587:10 8.96443e-08
14 *322:27 *1494:B 3.73144e-06
15 *322:27 *1498:A1 5.51397e-07
16 *322:29 *1498:A2 6.33206e-07
17 *322:29 *440:10 0
18 *322:29 *474:12 1.89747e-06
19 *322:29 *584:38 0
20 *322:29 *970:10 9.31558e-06
21 *322:29 *1103:10 0
22 *185:10 *322:29 0
23 *185:31 *322:29 0
24 *188:8 *322:29 1.10561e-06
25 *189:23 *322:29 5.8058e-05
*RES
1 *1494:Y *322:4 17.2 
2 *322:4 *322:12 46.6298 
3 *322:12 *322:18 35.2447 
4 *322:18 *1496:A2 17.2 
5 *322:4 *322:27 24.1527 
6 *322:27 *322:29 42.8006 
7 *322:29 *1715:B 37.0741 
*END

*D_NET *323 7.04491e-05
*CONN
*I *1480:B I *D OA21x2_ASAP7_75t_R
*I *1715:CON O *D HAxp5_ASAP7_75t_R
*CAP
1 *1480:B 0
2 *1715:CON 2.81018e-05
3 *323:6 2.81018e-05
4 *323:6 *324:6 5.17782e-06
5 *323:6 *324:19 3.44576e-06
6 *190:14 *323:6 5.62196e-06
*RES
1 *1715:CON *323:6 34.8492 
2 *323:6 *1480:B 17.2 
*END

*D_NET *324 9.23578e-05
*CONN
*I *1485:C I *D OR3x1_ASAP7_75t_R
*I *1480:A1 I *D OA21x2_ASAP7_75t_R
*I *1715:SN O *D HAxp5_ASAP7_75t_R
*CAP
1 *1485:C 6.57025e-06
2 *1480:A1 0
3 *1715:SN 5.25993e-06
4 *324:19 1.85524e-05
5 *324:6 1.72421e-05
6 *1485:A *1485:C 3.05302e-06
7 *1485:B *1485:C 6.92634e-06
8 *190:14 *324:19 2.61303e-05
9 *305:25 *324:19 0
10 *323:6 *324:6 5.17782e-06
11 *323:6 *324:19 3.44576e-06
*RES
1 *1715:SN *324:6 20.9438 
2 *324:6 *1480:A1 17.2 
3 *324:6 *324:19 44.9018 
4 *324:19 *1485:C 22.5483 
*END

*D_NET *325 0.000116781
*CONN
*I *1716:A I *D HAxp5_ASAP7_75t_R
*I *1275:Y O *D NOR2x1_ASAP7_75t_R
*CAP
1 *1716:A 0
2 *1275:Y 0
3 *325:8 4.78562e-05
4 *325:6 4.78562e-05
5 *325:8 *1478:B 0
6 *325:8 *1489:B1 0
7 *325:8 *328:35 3.32579e-06
8 *325:8 *571:8 0
9 *325:8 *582:18 0
10 *325:8 *583:8 7.4712e-07
11 *325:8 *584:16 1.25675e-06
12 *325:8 *584:103 2.77657e-06
13 *325:8 *584:114 4.85096e-06
14 *325:8 *1000:10 0
15 *325:8 *1003:25 6.48289e-06
16 *325:8 *1083:17 1.62854e-06
*RES
1 *1275:Y *325:6 34.4 
2 *325:6 *325:8 38.2953 
3 *325:8 *1716:A 34.4 
*END

*D_NET *326 0.00016711
*CONN
*I *2052:A I *D BUFx3_ASAP7_75t_R
*I *1716:B I *D HAxp5_ASAP7_75t_R
*I *1511:Y O *D AO21x2_ASAP7_75t_R
*CAP
1 *2052:A 1.50916e-05
2 *1716:B 5.06032e-06
3 *1511:Y 5.93549e-06
4 *326:12 2.42097e-05
5 *326:6 4.01764e-05
6 *326:12 *580:8 1.98156e-06
7 *326:12 *582:14 0
8 *326:12 *1000:10 2.53758e-06
9 *1692:B *326:12 8.2174e-07
10 *248:16 *326:12 6.76305e-06
11 *249:14 *2052:A 3.37545e-05
12 *249:14 *326:6 1.62312e-05
13 *249:25 *2052:A 1.42799e-05
14 *252:10 *2052:A 2.66797e-07
*RES
1 *1511:Y *326:6 22.0134 
2 *326:6 *326:12 48.4791 
3 *326:12 *1716:B 19.8741 
4 *326:6 *2052:A 31.6403 
*END

*D_NET *327 7.10798e-05
*CONN
*I *1478:B I *D OA21x2_ASAP7_75t_R
*I *1716:CON O *D HAxp5_ASAP7_75t_R
*CAP
1 *1478:B 1.24277e-05
2 *1716:CON 1.32152e-05
3 *327:8 2.56429e-05
4 *1478:B *328:35 0
5 *1478:B *571:8 7.09459e-06
6 *327:8 *328:12 2.20493e-06
7 *1972:A *327:8 6.6195e-06
8 *248:10 *1478:B 3.875e-06
9 *325:8 *1478:B 0
*RES
1 *1716:CON *327:8 43.492 
2 *327:8 *1478:B 44.537 
*END

*D_NET *328 0.000148648
*CONN
*I *1478:A1 I *D OA21x2_ASAP7_75t_R
*I *1486:B I *D OR5x1_ASAP7_75t_R
*I *1716:SN O *D HAxp5_ASAP7_75t_R
*CAP
1 *1478:A1 0
2 *1486:B 0
3 *1716:SN 0
4 *328:35 1.79354e-05
5 *328:22 3.19837e-05
6 *328:12 5.05353e-05
7 *328:4 3.64869e-05
8 *328:12 *1000:10 1.93482e-06
9 *328:22 *572:14 0
10 *328:22 *578:12 0
11 *328:35 *571:8 0
12 *328:35 *572:6 7.72307e-07
13 *328:35 *1000:10 0
14 *1478:B *328:35 0
15 *1486:D *328:22 1.70708e-06
16 *9:8 *328:35 6.33206e-07
17 *249:25 *328:35 1.12894e-06
18 *325:8 *328:35 3.32579e-06
19 *327:8 *328:12 2.20493e-06
*RES
1 *1716:SN *328:4 17.2 
2 *328:4 *328:12 43.0794 
3 *328:12 *328:22 45.421 
4 *328:22 *1486:B 17.2 
5 *328:4 *328:35 47.2111 
6 *328:35 *1478:A1 17.2 
*END

*D_NET *329 0.000107751
*CONN
*I *2049:A I *D BUFx3_ASAP7_75t_R
*I *1717:A I *D HAxp5_ASAP7_75t_R
*I *1580:Y O *D OA21x2_ASAP7_75t_R
*CAP
1 *2049:A 2.95274e-06
2 *1717:A 1.59133e-05
3 *1580:Y 3.73918e-06
4 *329:10 4.18964e-05
5 *329:8 2.67695e-05
6 *1717:A *1973:A 1.64795e-05
7 *1717:A *529:35 0
8 *1717:A *1113:10 0
9 *1717:A *1113:16 0
10 *329:10 *529:35 0
*RES
1 *1580:Y *329:8 36.0045 
2 *329:8 *329:10 16.3318 
3 *329:10 *1717:A 47.3528 
4 *329:10 *2049:A 36.0045 
*END

*D_NET *330 0.000264797
*CONN
*I *1973:A I *D BUFx3_ASAP7_75t_R
*I *1717:B I *D HAxp5_ASAP7_75t_R
*I *1604:Y O *D AO21x1_ASAP7_75t_R
*CAP
1 *1973:A 1.68558e-05
2 *1717:B 0
3 *1604:Y 7.49056e-06
4 *330:10 0.000106543
5 *330:8 9.71778e-05
6 *330:8 *1604:B 6.10603e-06
7 *330:10 *1385:A2 2.24111e-07
8 *330:10 *331:12 3.16603e-06
9 *330:10 *331:25 0
10 *330:10 *502:23 8.2174e-07
11 *330:10 *502:39 1.91241e-06
12 *330:10 *507:23 0
13 *330:10 *507:29 2.25787e-06
14 *330:10 *509:17 0
15 *330:10 *520:14 0
16 *330:10 *520:22 1.62854e-06
17 *330:10 *522:10 0
18 *330:10 *522:25 0
19 *330:10 *529:8 0
20 *330:10 *650:10 6.33206e-07
21 *330:10 *736:26 1.55629e-06
22 *330:10 *745:55 8.23819e-07
23 *1717:A *1973:A 1.64795e-05
24 *1977:A *330:10 0
25 *254:8 *330:10 0
26 *256:22 *330:10 0
27 *290:18 *330:10 0
28 *290:30 *330:10 1.12055e-06
*RES
1 *1604:Y *330:8 38.6786 
2 *330:8 *330:10 64.7641 
3 *330:10 *1717:B 34.4 
4 *330:10 *1973:A 47.1544 
*END

*D_NET *331 0.000168794
*CONN
*I *1403:C I *D OA211x2_ASAP7_75t_R
*I *1967:A I *D BUFx3_ASAP7_75t_R
*I *1717:CON O *D HAxp5_ASAP7_75t_R
*CAP
1 *1403:C 1.51179e-06
2 *1967:A 1.00863e-05
3 *1717:CON 0
4 *331:25 3.16752e-05
5 *331:12 2.30718e-05
6 *331:4 4.3149e-05
7 *1967:A *332:6 1.63362e-05
8 *1967:A *1002:10 7.09708e-06
9 *331:12 *332:6 7.86349e-07
10 *331:25 *332:6 3.03306e-06
11 *331:25 *520:14 1.93545e-05
12 *331:25 *1012:10 0
13 *1403:B *1403:C 3.90258e-06
14 *289:8 *331:25 5.79724e-07
15 *290:18 *331:25 5.04414e-06
16 *330:10 *331:12 3.16603e-06
17 *330:10 *331:25 0
*RES
1 *1717:CON *331:4 17.2 
2 *331:4 *331:12 40.9596 
3 *331:12 *1967:A 28.4313 
4 *331:4 *331:25 39.3582 
5 *331:25 *1403:C 35.4697 
*END

*D_NET *332 0.000136108
*CONN
*I *1962:A I *D BUFx3_ASAP7_75t_R
*I *1406:A I *D INVx1_ASAP7_75t_R
*I *1717:SN O *D HAxp5_ASAP7_75t_R
*CAP
1 *1962:A 0
2 *1406:A 8.37269e-06
3 *1717:SN 4.90982e-05
4 *332:6 5.74708e-05
5 *1406:A *524:8 1.01102e-06
6 *1967:A *332:6 1.63362e-05
7 *331:12 *332:6 7.86349e-07
8 *331:25 *332:6 3.03306e-06
*RES
1 *1717:SN *332:6 49.8243 
2 *332:6 *1406:A 22.5483 
3 *332:6 *1962:A 17.2 
*END

*D_NET *333 0.000106905
*CONN
*I *1718:A I *D HAxp5_ASAP7_75t_R
*I *1339:Y O *D NOR2x1_ASAP7_75t_R
*CAP
1 *1718:A 0
2 *1339:Y 1.21906e-05
3 *333:12 3.94719e-05
4 *333:8 5.16625e-05
5 *333:8 *1339:A 1.95129e-06
6 *333:12 *2053:A 0
7 *333:12 *334:10 0
8 *333:12 *557:63 0
9 *333:12 *568:10 1.62854e-06
10 *333:12 *1088:12 0
11 *2:8 *333:12 0
*RES
1 *1339:Y *333:8 39.2134 
2 *333:8 *333:12 44.232 
3 *333:12 *1718:A 17.2 
*END

*D_NET *334 9.09419e-05
*CONN
*I *2053:A I *D BUFx3_ASAP7_75t_R
*I *1718:B I *D HAxp5_ASAP7_75t_R
*I *1469:Y O *D AO21x1_ASAP7_75t_R
*CAP
1 *2053:A 1.78682e-05
2 *1718:B 6.73954e-06
3 *1469:Y 1.37589e-05
4 *334:10 3.83666e-05
5 *2053:A *335:8 1.91241e-06
6 *2053:A *336:20 3.92018e-06
7 *334:10 *1469:B 2.20493e-06
8 *334:10 *398:87 5.49212e-07
9 *101:6 *334:10 5.62196e-06
10 *101:12 *334:10 0
11 *333:12 *2053:A 0
12 *333:12 *334:10 0
*RES
1 *1469:Y *334:10 45.0151 
2 *334:10 *1718:B 38.1438 
3 *334:10 *2053:A 48.4791 
*END

*D_NET *335 2.39638e-05
*CONN
*I *1439:B I *D OA21x2_ASAP7_75t_R
*I *1718:CON O *D HAxp5_ASAP7_75t_R
*CAP
1 *1439:B 0
2 *1718:CON 6.93557e-06
3 *335:8 6.93557e-06
4 *335:8 *336:12 7.54709e-06
5 *335:8 *336:20 6.33206e-07
6 *2053:A *335:8 1.91241e-06
7 *101:12 *335:8 0
*RES
1 *1718:CON *335:8 41.158 
2 *335:8 *1439:B 34.4 
*END

*D_NET *336 0.000109128
*CONN
*I *1442:B I *D OR3x1_ASAP7_75t_R
*I *1439:A2 I *D OA21x2_ASAP7_75t_R
*I *1718:SN O *D HAxp5_ASAP7_75t_R
*CAP
1 *1442:B 0
2 *1439:A2 0
3 *1718:SN 0
4 *336:33 2.45996e-05
5 *336:20 3.52453e-06
6 *336:12 2.03814e-05
7 *336:4 4.14565e-05
8 *336:12 *547:8 2.03413e-06
9 *336:33 *556:51 0
10 *2053:A *336:20 3.92018e-06
11 *101:12 *336:12 4.88189e-07
12 *101:12 *336:33 3.05118e-08
13 *101:22 *336:12 0
14 *101:22 *336:33 4.51224e-06
15 *335:8 *336:12 7.54709e-06
16 *335:8 *336:20 6.33206e-07
*RES
1 *1718:SN *336:4 17.2 
2 *336:4 *336:12 47.0977 
3 *336:12 *336:20 38.2855 
4 *336:20 *1439:A2 17.2 
5 *336:4 *336:33 45.8581 
6 *336:33 *1442:B 17.2 
*END

*D_NET *337 1.20975e-05
*CONN
*I *1123:A1 I *D OA21x2_ASAP7_75t_R
*I *1122:Y O *D INVx1_ASAP7_75t_R
*CAP
1 *1123:A1 6.04876e-06
2 *1122:Y 6.04876e-06
3 *35:6 *1123:A1 0
*RES
1 *1122:Y *1123:A1 36.5393 
*END

*D_NET *338 8.76962e-05
*CONN
*I *1126:A1 I *D OA21x2_ASAP7_75t_R
*I *1123:Y O *D OA21x2_ASAP7_75t_R
*CAP
1 *1126:A1 0
2 *1123:Y 2.22775e-06
3 *338:14 2.24057e-05
4 *338:8 2.46335e-05
5 *338:14 *339:14 0
6 *338:14 *340:10 0
7 *338:14 *787:45 3.08218e-06
8 *35:12 *338:14 8.81102e-06
9 *71:10 *338:14 1.31444e-06
10 *270:10 *338:14 1.02072e-05
11 *272:10 *338:14 3.16931e-06
12 *296:10 *338:14 0
13 *296:16 *338:14 1.18451e-05
*RES
1 *1123:Y *338:8 35.4697 
2 *338:8 *338:14 36.7408 
3 *338:14 *1126:A1 17.2 
*END

*D_NET *339 0.00016886
*CONN
*I *1126:A2 I *D OA21x2_ASAP7_75t_R
*I *1124:Y O *D OR2x2_ASAP7_75t_R
*CAP
1 *1126:A2 0
2 *1124:Y 4.69573e-05
3 *339:14 6.61787e-06
4 *339:6 5.35751e-05
5 *1124:A *339:6 3.76978e-05
6 *296:16 *339:6 2.01215e-05
7 *296:16 *339:14 3.89037e-06
8 *338:14 *339:14 0
*RES
1 *1124:Y *339:6 36.9885 
2 *339:6 *339:14 38.2855 
3 *339:14 *1126:A2 17.2 
*END

*D_NET *340 6.04975e-05
*CONN
*I *1126:B I *D OA21x2_ASAP7_75t_R
*I *1125:Y O *D OA21x2_ASAP7_75t_R
*CAP
1 *1126:B 0
2 *1125:Y 2.617e-05
3 *340:10 2.617e-05
4 *340:10 *787:45 0
5 *340:10 *1038:25 0
6 *340:10 *1038:33 5.51397e-07
7 *272:27 *340:10 2.54045e-06
8 *296:10 *340:10 5.06565e-06
9 *338:14 *340:10 0
*RES
1 *1125:Y *340:10 48.1107 
2 *340:10 *1126:B 34.4 
*END

*D_NET *341 0.000340179
*CONN
*I *1139:A1 I *D OA21x2_ASAP7_75t_R
*I *1137:A1 I *D OAI21x1_ASAP7_75t_R
*I *1267:A1 I *D OA211x2_ASAP7_75t_R
*I *1126:Y O *D OA21x2_ASAP7_75t_R
*CAP
1 *1139:A1 0
2 *1137:A1 0
3 *1267:A1 0
4 *1126:Y 2.53174e-06
5 *341:53 1.28581e-05
6 *341:45 4.39333e-05
7 *341:32 3.38229e-05
8 *341:24 5.58754e-05
9 *341:16 7.61408e-05
10 *341:8 2.55447e-05
11 *341:16 *786:20 6.64582e-06
12 *341:16 *787:39 5.73491e-07
13 *341:24 *344:28 4.594e-05
14 *341:24 *787:39 1.72409e-05
15 *341:32 *345:38 5.49212e-07
16 *341:32 *787:14 0
17 *341:32 *946:27 0
18 *341:32 *1024:27 0
19 *341:32 *1076:12 4.03043e-07
20 *341:45 *1267:B 5.77516e-06
21 *341:45 *345:27 3.89037e-06
22 *341:45 *354:10 2.05012e-06
23 *341:45 *1076:12 4.33555e-07
24 *341:53 *345:12 2.35211e-06
25 *341:53 *830:10 3.61852e-06
26 *268:10 *341:53 0
*RES
1 *1126:Y *341:8 36.3711 
2 *341:8 *341:16 38.3101 
3 *341:16 *341:24 41.7704 
4 *341:24 *341:32 30.5195 
5 *341:32 *1267:A1 34.4 
6 *341:32 *341:45 37.0735 
7 *341:45 *341:53 42.5641 
8 *341:53 *1137:A1 17.2 
9 *341:45 *1139:A1 17.2 
*END

*D_NET *342 0.000273497
*CONN
*I *1135:B1 I *D OAI22x1_ASAP7_75t_R
*I *1128:A I *D INVx1_ASAP7_75t_R
*I *1127:Y O *D OR4x1_ASAP7_75t_R
*CAP
1 *1135:B1 1.49538e-05
2 *1128:A 0
3 *1127:Y 6.23017e-05
4 *342:10 1.78459e-05
5 *342:6 6.51938e-05
6 *1135:B1 *344:40 2.04034e-05
7 *1135:B1 *350:10 0
8 *342:6 *1137:B 9.08513e-06
9 *342:6 *1698:B 9.30483e-06
10 *342:10 *351:10 3.79923e-06
11 *1127:B *342:6 2.12062e-05
12 *1135:A2 *1135:B1 2.20163e-05
13 *38:6 *342:6 3.73144e-06
14 *268:10 *1135:B1 8.58704e-06
15 *268:10 *342:10 9.81516e-06
16 *269:8 *342:6 5.25278e-06
17 *269:22 *342:6 0
18 *269:33 *1135:B1 0
*RES
1 *1127:Y *342:6 46.6154 
2 *342:6 *342:10 20.579 
3 *342:10 *1128:A 34.4 
4 *342:10 *1135:B1 49.4638 
*END

*D_NET *343 2.82309e-05
*CONN
*I *1130:A I *D NAND2x1_ASAP7_75t_R
*I *1128:Y O *D INVx1_ASAP7_75t_R
*CAP
1 *1130:A 9.91755e-06
2 *1128:Y 9.91755e-06
3 *1130:A *344:40 8.39579e-06
*RES
1 *1128:Y *1130:A 40.2831 
*END

*D_NET *344 0.00045795
*CONN
*I *1130:B I *D NAND2x1_ASAP7_75t_R
*I *1135:B2 I *D OAI22x1_ASAP7_75t_R
*I *1129:Y O *D OR4x1_ASAP7_75t_R
*CAP
1 *1130:B 0
2 *1135:B2 0
3 *1129:Y 2.79843e-06
4 *344:40 2.64418e-05
5 *344:34 2.87117e-05
6 *344:28 5.5415e-05
7 *344:18 7.1751e-05
8 *344:8 2.14043e-05
9 *344:8 *793:8 7.0931e-07
10 *344:18 *786:12 0
11 *344:18 *1024:27 0
12 *344:28 *695:20 7.96564e-07
13 *344:28 *704:20 1.28171e-06
14 *344:28 *787:29 0
15 *344:28 *787:39 0.00014665
16 *344:28 *946:17 3.49162e-06
17 *344:34 *787:14 0
18 *344:34 *830:10 5.91365e-06
19 *344:40 *345:12 8.06588e-06
20 *344:40 *350:10 0
21 *1130:A *344:40 8.39579e-06
22 *1135:B1 *344:40 2.04034e-05
23 *72:10 *344:8 4.62374e-07
24 *268:14 *344:40 9.31704e-06
25 *269:33 *344:40 0
26 *341:24 *344:28 4.594e-05
*RES
1 *1129:Y *344:8 35.9956 
2 *344:8 *344:18 46.4952 
3 *344:18 *344:28 45.9579 
4 *344:28 *344:34 36.3711 
5 *344:34 *344:40 39.4679 
6 *344:40 *1135:B2 34.4 
7 *344:34 *1130:B 17.2 
*END

*D_NET *345 0.000156784
*CONN
*I *1267:A2 I *D OA211x2_ASAP7_75t_R
*I *1139:A2 I *D OA21x2_ASAP7_75t_R
*I *1137:A2 I *D OAI21x1_ASAP7_75t_R
*I *1130:Y O *D NAND2x1_ASAP7_75t_R
*CAP
1 *1267:A2 0
2 *1139:A2 0
3 *1137:A2 0
4 *1130:Y 0
5 *345:38 3.148e-05
6 *345:27 1.20321e-05
7 *345:19 4.9683e-05
8 *345:12 2.02127e-05
9 *345:4 2.63836e-05
10 *345:12 *830:10 1.09067e-06
11 *345:27 *354:10 1.04475e-06
12 *345:27 *787:14 0
13 *345:27 *830:10 0
14 *345:38 *787:14 0
15 *345:38 *1076:12 0
16 *268:10 *345:12 0
17 *341:32 *345:38 5.49212e-07
18 *341:45 *345:27 3.89037e-06
19 *341:53 *345:12 2.35211e-06
20 *344:40 *345:12 8.06588e-06
*RES
1 *1130:Y *345:4 17.2 
2 *345:4 *345:12 48.1107 
3 *345:12 *1137:A2 17.2 
4 *345:4 *345:19 3.74377 
5 *345:19 *345:27 42.2276 
6 *345:27 *1139:A2 17.2 
7 *345:19 *345:38 36.259 
8 *345:38 *1267:A2 34.4 
*END

*D_NET *346 9.40761e-05
*CONN
*I *1132:A2 I *D AO21x1_ASAP7_75t_R
*I *1131:Y O *D OR2x2_ASAP7_75t_R
*CAP
1 *1132:A2 1.05169e-05
2 *1131:Y 2.57304e-05
3 *346:8 3.62473e-05
4 *1132:A2 *705:8 6.87987e-06
5 *1132:A2 *706:8 9.25388e-06
6 *1132:A2 *799:16 0
7 *1132:A2 *859:13 4.76924e-06
8 *346:8 *799:14 6.7842e-07
9 *48:23 *1132:A2 0
*RES
1 *1131:Y *346:8 43.492 
2 *346:8 *1132:A2 45.6633 
*END

*D_NET *347 9.35842e-05
*CONN
*I *1136:A1 I *D AO21x1_ASAP7_75t_R
*I *1132:Y O *D AO21x1_ASAP7_75t_R
*CAP
1 *1136:A1 1.29502e-05
2 *1132:Y 1.96867e-05
3 *347:8 3.26369e-05
4 *1136:A1 *800:10 1.12894e-06
5 *347:8 *1134:A 1.04475e-06
6 *347:8 *349:10 1.73158e-06
7 *38:14 *1136:A1 1.12894e-06
8 *48:23 *347:8 5.0551e-07
9 *268:14 *1136:A1 6.53938e-06
10 *268:14 *347:8 1.62312e-05
*RES
1 *1132:Y *347:8 47.7706 
2 *347:8 *1136:A1 43.1556 
*END

*D_NET *348 0.00020653
*CONN
*I *1135:A1 I *D OAI22x1_ASAP7_75t_R
*I *1134:A I *D AND3x1_ASAP7_75t_R
*I *1133:Y O *D INVx1_ASAP7_75t_R
*CAP
1 *1135:A1 0
2 *1134:A 1.56369e-06
3 *1133:Y 0
4 *348:31 3.79584e-05
5 *348:25 4.55435e-05
6 *348:10 3.75227e-05
7 *348:4 4.35442e-05
8 *348:10 *697:8 1.74339e-06
9 *348:10 *705:8 0
10 *348:10 *791:8 5.19552e-07
11 *348:10 *800:8 3.13935e-05
12 *348:10 *800:10 0
13 *348:10 *945:29 6.24746e-07
14 *38:14 *348:10 6.33206e-07
15 *48:23 *348:10 0
16 *269:33 *348:10 4.43846e-06
17 *347:8 *1134:A 1.04475e-06
*RES
1 *1133:Y *348:4 17.2 
2 *348:4 *348:10 40.6509 
3 *348:10 *1134:A 35.4697 
4 *348:4 *348:25 38.9053 
5 *348:25 *348:31 35.1326 
6 *348:31 *1135:A1 34.4 
*END

*D_NET *349 7.30627e-05
*CONN
*I *1136:A2 I *D AO21x1_ASAP7_75t_R
*I *1134:Y O *D AND3x1_ASAP7_75t_R
*CAP
1 *1136:A2 1.87453e-06
2 *1134:Y 1.58422e-05
3 *349:10 1.77168e-05
4 *349:10 *791:10 1.16966e-05
5 *268:14 *1136:A2 3.90258e-06
6 *268:14 *349:10 8.73959e-06
7 *269:33 *349:10 1.15587e-05
8 *347:8 *349:10 1.73158e-06
*RES
1 *1134:Y *349:10 45.2949 
2 *349:10 *1136:A2 35.4697 
*END

*D_NET *350 5.10756e-05
*CONN
*I *1136:B I *D AO21x1_ASAP7_75t_R
*I *1135:Y O *D OAI22x1_ASAP7_75t_R
*CAP
1 *1136:B 0
2 *1135:Y 1.37178e-05
3 *350:10 1.37178e-05
4 *1135:B1 *350:10 0
5 *269:33 *350:10 2.36401e-05
6 *344:40 *350:10 0
*RES
1 *1135:Y *350:10 44.9585 
2 *350:10 *1136:B 34.4 
*END

*D_NET *351 0.000320403
*CONN
*I *1137:B I *D OAI21x1_ASAP7_75t_R
*I *1267:B I *D OA211x2_ASAP7_75t_R
*I *1139:B I *D OA21x2_ASAP7_75t_R
*I *1136:Y O *D AO21x1_ASAP7_75t_R
*CAP
1 *1137:B 1.01159e-05
2 *1267:B 1.3103e-05
3 *1139:B 0
4 *1136:Y 1.42499e-05
5 *351:35 3.33485e-05
6 *351:22 8.77852e-06
7 *351:16 9.71925e-05
8 *351:10 9.25343e-05
9 *351:16 *1990:A 1.5804e-05
10 *351:22 *787:14 1.12894e-06
11 *351:22 *830:10 0
12 *351:35 *787:14 6.67018e-06
13 *351:35 *1024:23 0
14 *267:8 *351:16 0
15 *268:8 *1137:B 2.11853e-06
16 *268:14 *351:10 6.0212e-06
17 *269:8 *1137:B 6.7842e-07
18 *269:33 *351:10 0
19 *341:45 *1267:B 5.77516e-06
20 *342:6 *1137:B 9.08513e-06
21 *342:10 *351:10 3.79923e-06
*RES
1 *1136:Y *351:10 43.1839 
2 *351:10 *351:16 49.1514 
3 *351:16 *351:22 40.0317 
4 *351:22 *1139:B 17.2 
5 *351:16 *351:35 44.7884 
6 *351:35 *1267:B 25.7572 
7 *351:10 *1137:B 41.3527 
*END

*D_NET *352 0.000492673
*CONN
*I *1990:A I *D BUFx3_ASAP7_75t_R
*I *1549:B I *D AND2x2_ASAP7_75t_R
*I *1167:B I *D AND2x2_ASAP7_75t_R
*I *1263:B I *D AND2x2_ASAP7_75t_R
*I *1137:Y O *D OAI21x1_ASAP7_75t_R
*CAP
1 *1990:A 5.10024e-06
2 *1549:B 0
3 *1167:B 0
4 *1263:B 1.76803e-05
5 *1137:Y 5.02284e-06
6 *352:55 7.725e-06
7 *352:40 5.54043e-05
8 *352:38 3.61757e-05
9 *352:26 6.03e-05
10 *352:18 8.95579e-05
11 *352:8 4.55577e-05
12 *1263:B *376:12 1.02586e-05
13 *1263:B *437:8 7.78356e-06
14 *352:8 *830:10 1.31716e-05
15 *352:18 *830:10 8.08836e-06
16 *352:18 *1025:74 2.9388e-05
17 *352:26 *354:28 6.06772e-05
18 *352:26 *705:20 0
19 *352:26 *861:17 4.31106e-06
20 *352:38 *354:51 8.36681e-08
21 *352:38 *631:81 6.25922e-07
22 *352:38 *799:22 0
23 *352:40 *1560:B 2.52755e-07
24 *352:40 *376:12 1.57457e-05
25 *352:55 *376:8 3.95845e-06
26 *351:16 *1990:A 1.5804e-05
*RES
1 *1137:Y *352:8 38.9053 
2 *352:8 *352:18 46.7284 
3 *352:18 *352:26 41.0858 
4 *352:26 *352:38 48.9768 
5 *352:38 *352:40 12.8358 
6 *352:40 *1263:B 24.6875 
7 *352:40 *352:55 38.8486 
8 *352:55 *1167:B 17.2 
9 *352:38 *1549:B 17.2 
10 *352:8 *1990:A 39.2134 
*END

*D_NET *353 0.000117113
*CONN
*I *1573:C I *D OR3x1_ASAP7_75t_R
*I *1141:A I *D NOR2x1_ASAP7_75t_R
*I *1138:Y O *D AND2x2_ASAP7_75t_R
*CAP
1 *1573:C 2.03307e-05
2 *1141:A 0
3 *1138:Y 1.83633e-05
4 *353:10 2.03307e-05
5 *353:8 1.83633e-05
6 *1573:C *1573:A 2.98641e-05
7 *1573:C *631:136 5.51397e-07
8 *353:8 *355:10 8.21855e-06
9 *353:8 *795:8 1.09067e-06
10 *353:8 *1025:52 0
*RES
1 *1138:Y *353:8 47.3528 
2 *353:8 *353:10 17.2 
3 *353:10 *1141:A 17.2 
4 *353:10 *1573:C 31.6403 
*END

*D_NET *354 0.000517627
*CONN
*I *1989:A I *D BUFx3_ASAP7_75t_R
*I *1264:B I *D AND2x2_ASAP7_75t_R
*I *1168:B I *D AND2x2_ASAP7_75t_R
*I *1550:B I *D AND2x2_ASAP7_75t_R
*I *1139:Y O *D OA21x2_ASAP7_75t_R
*CAP
1 *1989:A 0
2 *1264:B 4.99501e-06
3 *1168:B 3.4248e-06
4 *1550:B 3.80809e-06
5 *1139:Y 2.47655e-05
6 *354:55 1.02505e-05
7 *354:51 4.92911e-05
8 *354:36 5.53276e-05
9 *354:28 6.44025e-05
10 *354:20 9.02486e-05
11 *354:10 5.46707e-05
12 *1168:B *788:14 2.88806e-06
13 *1264:B *438:10 1.53144e-05
14 *354:10 *787:14 0
15 *354:10 *830:10 8.2174e-07
16 *354:20 *787:14 0
17 *354:20 *830:10 2.45028e-06
18 *354:20 *1024:10 2.98814e-07
19 *354:20 *1025:74 5.15753e-06
20 *354:28 *631:33 1.23846e-05
21 *354:28 *631:37 4.61688e-05
22 *354:36 *375:8 0
23 *354:36 *631:81 6.35827e-07
24 *354:51 *631:81 0
25 *354:51 *799:22 1.65732e-06
26 *354:55 *438:10 4.80936e-06
27 *341:45 *354:10 2.05012e-06
28 *345:27 *354:10 1.04475e-06
29 *352:26 *354:28 6.06772e-05
30 *352:38 *354:51 8.36681e-08
*RES
1 *1139:Y *354:10 46.9277 
2 *354:10 *354:20 44.3775 
3 *354:20 *354:28 48.7633 
4 *354:28 *354:36 31.1401 
5 *354:36 *1550:B 36.0045 
6 *354:36 *354:51 34.8275 
7 *354:51 *354:55 18.7956 
8 *354:55 *1168:B 36.5393 
9 *354:55 *1264:B 40.0317 
10 *354:10 *1989:A 34.4 
*END

*D_NET *355 9.44238e-05
*CONN
*I *1573:A I *D OR3x1_ASAP7_75t_R
*I *1141:B I *D NOR2x1_ASAP7_75t_R
*I *1140:Y O *D AND2x2_ASAP7_75t_R
*CAP
1 *1573:A 8.77324e-06
2 *1141:B 3.37925e-06
3 *1140:Y 1.309e-05
4 *355:10 2.52425e-05
5 *1141:B *631:132 0
6 *1141:B *631:151 0
7 *1573:A *631:136 3.65131e-06
8 *355:10 *631:151 0
9 *355:10 *1025:52 2.20493e-06
10 *1573:C *1573:A 2.98641e-05
11 *353:8 *355:10 8.21855e-06
*RES
1 *1140:Y *355:10 43.8888 
2 *355:10 *1141:B 37.2158 
3 *355:10 *1573:A 43.492 
*END

*D_NET *356 0.000258002
*CONN
*I *1156:A I *D INVx1_ASAP7_75t_R
*I *1145:C I *D OR4x1_ASAP7_75t_R
*I *1143:Y O *D OR4x1_ASAP7_75t_R
*CAP
1 *1156:A 0
2 *1145:C 0
3 *1143:Y 4.54443e-06
4 *356:49 1.39346e-06
5 *356:38 1.90899e-05
6 *356:28 6.56965e-05
7 *356:18 5.83771e-05
8 *356:8 1.77084e-05
9 *356:8 *726:36 0
10 *356:28 *364:28 4.15909e-05
11 *356:28 *726:28 3.75504e-05
12 *356:38 *1999:A 2.92484e-06
13 *356:38 *357:10 3.92018e-07
14 *356:38 *1034:8 2.20179e-07
15 *356:49 *1031:10 0
16 *356:49 *1034:8 8.96443e-08
17 *1145:A *356:38 3.68287e-06
18 *22:12 *356:8 1.05893e-06
19 *26:14 *356:38 3.68287e-06
*RES
1 *1143:Y *356:8 37.6851 
2 *356:8 *356:18 45.7814 
3 *356:18 *356:28 42.3365 
4 *356:28 *356:38 42.982 
5 *356:38 *1145:C 17.2 
6 *356:28 *356:49 35.2447 
7 *356:49 *1156:A 17.2 
*END

*D_NET *357 7.09672e-05
*CONN
*I *1999:A I *D BUFx3_ASAP7_75t_R
*I *1145:D I *D OR4x1_ASAP7_75t_R
*I *1144:Y O *D OR2x2_ASAP7_75t_R
*CAP
1 *1999:A 1.48774e-05
2 *1145:D 0
3 *1144:Y 1.28872e-05
4 *357:10 2.77646e-05
5 *1999:A *726:8 0
6 *1999:A *1034:8 0
7 *357:10 *366:8 0
8 *357:10 *1034:8 0
9 *58:25 *357:10 1.21211e-05
10 *356:38 *1999:A 2.92484e-06
11 *356:38 *357:10 3.92018e-07
*RES
1 *1144:Y *357:10 42.6491 
2 *357:10 *1145:D 34.4 
3 *357:10 *1999:A 43.4107 
*END

*D_NET *358 0.000118319
*CONN
*I *1157:B I *D AND2x2_ASAP7_75t_R
*I *1996:A I *D BUFx3_ASAP7_75t_R
*I *1145:Y O *D OR4x1_ASAP7_75t_R
*CAP
1 *1157:B 4.41428e-06
2 *1996:A 0
3 *1145:Y 3.47327e-05
4 *358:12 6.97069e-06
5 *358:6 4.61176e-05
6 *1157:B *1157:A 7.58265e-07
7 *358:6 *1157:A 2.52755e-07
8 *358:12 *1031:10 5.67723e-07
9 *358:12 *1034:8 0
10 *1145:A *358:6 1.56713e-06
11 *26:14 *358:6 2.29378e-05
*RES
1 *1145:Y *358:6 33.7796 
2 *358:6 *358:12 38.9053 
3 *358:12 *1996:A 17.2 
4 *358:6 *1157:B 19.3393 
*END

*D_NET *359 0.00012299
*CONN
*I *1150:B I *D AND2x2_ASAP7_75t_R
*I *1147:B I *D NOR2x1_ASAP7_75t_R
*I *1146:Y O *D INVx1_ASAP7_75t_R
*CAP
1 *1150:B 9.28773e-06
2 *1147:B 8.13787e-06
3 *1146:Y 1.87094e-05
4 *359:8 3.6135e-05
5 *1147:B *1150:A 9.70123e-06
6 *1147:B *360:8 2.02011e-06
7 *1147:B *364:8 0
8 *1150:B *1150:A 9.67723e-06
9 *1150:B *1151:A1 9.75645e-06
10 *1150:B *362:10 0
11 *359:8 *1117:14 1.11142e-05
12 *1149:B *1147:B 6.7842e-07
13 *32:8 *1147:B 7.7723e-06
*RES
1 *1146:Y *359:8 43.492 
2 *359:8 *1147:B 41.073 
3 *359:8 *1150:B 40.4531 
*END

*D_NET *360 7.48199e-05
*CONN
*I *1151:A1 I *D AOI21x1_ASAP7_75t_R
*I *1147:Y O *D NOR2x1_ASAP7_75t_R
*CAP
1 *1151:A1 7.75101e-06
2 *1147:Y 1.15383e-05
3 *360:8 1.92893e-05
4 *1151:A1 *1150:A 2.03526e-06
5 *1151:A1 *1151:B 2.0895e-06
6 *360:8 *1150:A 2.03399e-05
7 *360:8 *2082:A 0
8 *1147:B *360:8 2.02011e-06
9 *1150:B *1151:A1 9.75645e-06
*RES
1 *1147:Y *360:8 43.4107 
2 *360:8 *1151:A1 40.2831 
*END

*D_NET *361 4.35737e-05
*CONN
*I *1149:A2 I *D OA21x2_ASAP7_75t_R
*I *1148:Y O *D OA21x2_ASAP7_75t_R
*CAP
1 *1149:A2 0
2 *1148:Y 2.01516e-05
3 *361:10 2.01516e-05
4 *361:10 *364:8 3.27053e-06
5 *24:8 *361:10 0
6 *50:16 *361:10 0
*RES
1 *1148:Y *361:10 45.3516 
2 *361:10 *1149:A2 34.4 
*END

*D_NET *362 2.92906e-05
*CONN
*I *1151:A2 I *D AOI21x1_ASAP7_75t_R
*I *1149:Y O *D OA21x2_ASAP7_75t_R
*CAP
1 *1151:A2 0
2 *1149:Y 1.27372e-05
3 *362:10 1.27372e-05
4 *362:10 *1150:A 0
5 *362:10 *364:8 0
6 *1149:B *362:10 3.81627e-06
7 *1150:B *362:10 0
*RES
1 *1149:Y *362:10 42.7058 
2 *362:10 *1151:A2 34.4 
*END

*D_NET *363 4.09208e-05
*CONN
*I *1151:B I *D AOI21x1_ASAP7_75t_R
*I *1150:Y O *D AND2x2_ASAP7_75t_R
*CAP
1 *1151:B 1.14099e-05
2 *1150:Y 1.14099e-05
3 *1151:B *1150:A 1.60115e-05
4 *1151:A1 *1151:B 2.0895e-06
*RES
1 *1150:Y *1151:B 43.492 
*END

*D_NET *364 0.000321361
*CONN
*I *1160:A2 I *D AOI22x1_ASAP7_75t_R
*I *1158:A2 I *D AO22x2_ASAP7_75t_R
*I *1151:Y O *D AOI21x1_ASAP7_75t_R
*CAP
1 *1160:A2 0
2 *1158:A2 0
3 *1151:Y 1.10891e-05
4 *364:47 1.57369e-06
5 *364:36 2.27072e-05
6 *364:28 8.64119e-05
7 *364:18 8.41864e-05
8 *364:8 3.31446e-05
9 *364:8 *1117:26 0
10 *364:28 *373:68 4.86221e-07
11 *364:36 *1158:A1 1.97928e-05
12 *364:36 *1158:B2 8.9453e-07
13 *364:36 *368:21 6.80378e-06
14 *364:36 *373:68 2.97966e-06
15 *364:36 *1031:10 6.4295e-06
16 *364:47 *1158:B2 0
17 *364:47 *719:14 0
18 *1147:B *364:8 0
19 *356:28 *364:28 4.15909e-05
20 *361:10 *364:8 3.27053e-06
21 *362:10 *364:8 0
*RES
1 *1151:Y *364:8 42.0027 
2 *364:8 *364:18 49.0553 
3 *364:18 *364:28 43.0962 
4 *364:28 *364:36 49.0303 
5 *364:36 *1158:A2 17.2 
6 *364:28 *364:47 35.4325 
7 *364:47 *1160:A2 17.2 
*END

*D_NET *365 1.10087e-05
*CONN
*I *1153:A1 I *D OA21x2_ASAP7_75t_R
*I *1152:Y O *D INVx1_ASAP7_75t_R
*CAP
1 *1153:A1 5.50436e-06
2 *1152:Y 5.50436e-06
*RES
1 *1152:Y *1153:A1 37.0741 
*END

*D_NET *366 8.60303e-05
*CONN
*I *1155:A2 I *D OAI21x1_ASAP7_75t_R
*I *1153:Y O *D OA21x2_ASAP7_75t_R
*CAP
1 *1155:A2 2.03092e-05
2 *1153:Y 8.80256e-06
3 *366:8 2.91118e-05
4 *58:25 *1155:A2 2.66207e-05
5 *163:10 *366:8 5.52807e-07
6 *164:18 *366:8 6.33206e-07
7 *357:10 *366:8 0
*RES
1 *1153:Y *366:8 40.0317 
2 *366:8 *1155:A2 48.8403 
*END

*D_NET *367 5.34161e-05
*CONN
*I *1155:B I *D OAI21x1_ASAP7_75t_R
*I *1154:Y O *D OA21x2_ASAP7_75t_R
*CAP
1 *1155:B 0
2 *1154:Y 2.30344e-05
3 *367:10 2.30344e-05
4 *1154:A2 *367:10 2.52755e-07
5 *58:25 *367:10 7.09459e-06
*RES
1 *1154:Y *367:10 46.9844 
2 *367:10 *1155:B 34.4 
*END

*D_NET *368 8.42207e-05
*CONN
*I *1158:B1 I *D AO22x2_ASAP7_75t_R
*I *1160:B2 I *D AOI22x1_ASAP7_75t_R
*I *1155:Y O *D OAI21x1_ASAP7_75t_R
*CAP
1 *1158:B1 0
2 *1160:B2 0
3 *1155:Y 6.14815e-06
4 *368:21 1.42632e-05
5 *368:6 2.04114e-05
6 *368:6 *1160:A1 1.95129e-06
7 *368:21 *1158:B2 2.14355e-05
8 *368:21 *1160:A1 1.32074e-05
9 *364:36 *368:21 6.80378e-06
*RES
1 *1155:Y *368:6 20.9438 
2 *368:6 *1160:B2 17.2 
3 *368:6 *368:21 46.4496 
4 *368:21 *1158:B1 17.2 
*END

*D_NET *369 1.88663e-05
*CONN
*I *1157:A I *D AND2x2_ASAP7_75t_R
*I *1156:Y O *D INVx1_ASAP7_75t_R
*CAP
1 *1157:A 8.92766e-06
2 *1156:Y 8.92766e-06
3 *1157:B *1157:A 7.58265e-07
4 *358:6 *1157:A 2.52755e-07
*RES
1 *1156:Y *1157:A 39.7482 
*END

*D_NET *370 7.29801e-05
*CONN
*I *1160:B1 I *D AOI22x1_ASAP7_75t_R
*I *1158:B2 I *D AO22x2_ASAP7_75t_R
*I *1157:Y O *D AND2x2_ASAP7_75t_R
*CAP
1 *1160:B1 2.24314e-06
2 *1158:B2 1.52486e-05
3 *1157:Y 5.6252e-06
4 *370:8 2.3117e-05
5 *1158:B2 *1158:A1 5.37866e-07
6 *1158:B2 *1031:10 3.13755e-07
7 *1160:B1 *1160:A1 2.20493e-06
8 *370:8 *1031:10 1.35961e-06
9 *364:36 *1158:B2 8.9453e-07
10 *364:47 *1158:B2 0
11 *368:21 *1158:B2 2.14355e-05
*RES
1 *1157:Y *370:8 38.9053 
2 *370:8 *1158:B2 46.1415 
3 *370:8 *1160:B1 36.0045 
*END

*D_NET *371 0.000813456
*CONN
*I *1344:B I *D AND2x4_ASAP7_75t_R
*I *1174:A I *D AND2x4_ASAP7_75t_R
*I *1314:B I *D AND2x2_ASAP7_75t_R
*I *1170:B I *D AND2x4_ASAP7_75t_R
*I *1348:A I *D AND2x4_ASAP7_75t_R
*I *1359:B I *D AND2x2_ASAP7_75t_R
*I *1337:B I *D AND2x2_ASAP7_75t_R
*I *1159:B I *D AND2x2_ASAP7_75t_R
*I *1158:Y O *D AO22x2_ASAP7_75t_R
*CAP
1 *1344:B 1.2048e-06
2 *1174:A 0
3 *1314:B 3.49751e-05
4 *1170:B 2.58735e-06
5 *1348:A 0
6 *1359:B 0
7 *1337:B 0
8 *1159:B 3.39202e-05
9 *1158:Y 2.78352e-05
10 *371:105 1.73176e-05
11 *371:72 0.000103717
12 *371:61 4.42217e-06
13 *371:45 7.13584e-06
14 *371:30 7.41792e-05
15 *371:28 3.54319e-05
16 *371:24 5.83914e-05
17 *371:18 0.00011892
18 *371:16 0.000125891
19 *371:12 1.16117e-05
20 *371:10 3.05446e-05
21 *371:6 3.19768e-05
22 *1159:B *374:8 1.25483e-05
23 *1159:B *1065:16 2.12373e-05
24 *1170:B *373:104 8.45637e-06
25 *1314:B *729:53 2.03526e-06
26 *1314:B *730:48 5.19552e-07
27 *371:6 *1175:A 3.89037e-06
28 *371:6 *719:14 7.14604e-06
29 *371:10 *1100:8 2.19685e-06
30 *371:12 *379:8 4.26751e-07
31 *371:12 *380:8 0
32 *371:12 *1100:8 3.16931e-06
33 *371:16 *379:8 4.26751e-07
34 *371:18 *373:68 0
35 *371:18 *373:74 3.74016e-08
36 *371:18 *557:26 0
37 *371:24 *477:12 0
38 *371:24 *716:28 3.0362e-06
39 *371:24 *724:10 2.43887e-07
40 *371:30 *374:8 3.68287e-06
41 *371:45 *716:8 4.26751e-07
42 *371:45 *725:12 2.20493e-06
43 *371:45 *1102:12 9.65338e-06
44 *371:61 *373:12 0
45 *371:61 *716:38 3.23943e-06
46 *371:72 *373:74 1.12205e-07
47 *371:72 *373:104 8.70345e-06
48 *371:72 *557:22 0
49 *371:72 *557:26 0
50 *371:72 *557:106 0
51 *371:105 *481:8 0
*RES
1 *1158:Y *371:6 33.7796 
2 *371:6 *371:10 21.1422 
3 *371:10 *371:12 9.01066 
4 *371:12 *371:16 18.0447 
5 *371:16 *371:18 23.1589 
6 *371:18 *371:24 35.6645 
7 *371:24 *371:28 18.2696 
8 *371:28 *371:30 13.9054 
9 *371:30 *1159:B 31.6403 
10 *371:30 *371:45 39.3835 
11 *371:45 *1337:B 17.2 
12 *371:28 *1359:B 17.2 
13 *371:18 *371:61 37.4974 
14 *371:61 *1348:A 17.2 
15 *371:16 *371:72 42.1576 
16 *371:72 *1170:B 37.2158 
17 *371:72 *1314:B 47.7706 
18 *371:12 *1174:A 34.4 
19 *371:10 *371:105 43.0989 
20 *371:105 *1344:B 35.4697 
*END

*D_NET *372 0.000109844
*CONN
*I *1472:C I *D OR3x1_ASAP7_75t_R
*I *1162:A I *D NOR2x1_ASAP7_75t_R
*I *1159:Y O *D AND2x2_ASAP7_75t_R
*CAP
1 *1472:C 6.91052e-06
2 *1162:A 1.45367e-05
3 *1159:Y 1.39617e-05
4 *372:8 3.5409e-05
5 *1162:A *1162:B 2.3189e-06
6 *1162:A *557:52 2.25196e-06
7 *1162:A *569:14 6.48455e-06
8 *1162:A *837:14 1.67401e-06
9 *1472:C *1472:B 5.41446e-06
10 *1472:C *557:52 1.36155e-06
11 *1472:C *569:8 1.07377e-06
12 *372:8 *1161:B 3.6269e-06
13 *372:8 *373:37 8.20045e-06
14 *372:8 *374:10 1.22047e-07
15 *372:8 *714:16 6.4971e-06
*RES
1 *1159:Y *372:8 47.3528 
2 *372:8 *1162:A 45.0151 
3 *372:8 *1472:C 38.6786 
*END

*D_NET *373 0.000826651
*CONN
*I *1175:A I *D AND2x2_ASAP7_75t_R
*I *1315:B I *D AND2x2_ASAP7_75t_R
*I *1171:B I *D AND2x2_ASAP7_75t_R
*I *1345:A I *D AND2x2_ASAP7_75t_R
*I *1349:A I *D AND2x2_ASAP7_75t_R
*I *1161:B I *D AND2x2_ASAP7_75t_R
*I *1338:B I *D AND2x2_ASAP7_75t_R
*I *1360:B I *D AND2x2_ASAP7_75t_R
*I *1160:Y O *D AOI22x1_ASAP7_75t_R
*CAP
1 *1175:A 1.94456e-06
2 *1315:B 2.98574e-05
3 *1171:B 0
4 *1345:A 8.14262e-06
5 *1349:A 0
6 *1161:B 1.88701e-06
7 *1338:B 4.72678e-06
8 *1360:B 1.28355e-06
9 *1160:Y 4.86067e-06
10 *373:104 4.74141e-05
11 *373:91 4.63653e-05
12 *373:78 4.61001e-05
13 *373:74 7.27774e-05
14 *373:68 9.90703e-05
15 *373:37 9.75908e-06
16 *373:33 3.82602e-05
17 *373:20 6.03626e-05
18 *373:14 4.09878e-05
19 *373:12 4.90558e-05
20 *373:8 7.03901e-05
21 *1161:B *374:10 9.94583e-06
22 *1315:B *1450:A 7.58545e-06
23 *1315:B *557:110 5.19552e-07
24 *1338:B *1338:A 2.88806e-06
25 *1345:A *1215:A 1.49407e-08
26 *1345:A *718:10 2.68933e-07
27 *373:8 *1158:A1 1.23531e-05
28 *373:12 *1158:A1 1.25925e-05
29 *373:12 *483:8 7.2538e-06
30 *373:12 *488:10 0
31 *373:12 *557:30 9.91658e-06
32 *373:12 *716:38 0
33 *373:14 *484:8 4.73041e-06
34 *373:14 *716:38 1.95129e-06
35 *373:20 *1360:A 8.65792e-06
36 *373:20 *489:8 8.31096e-06
37 *373:20 *716:38 1.25483e-05
38 *373:33 *557:42 1.37029e-05
39 *373:33 *557:52 8.09972e-06
40 *373:37 *374:10 1.82955e-05
41 *373:68 *719:14 8.29207e-07
42 *373:68 *1100:8 0
43 *373:74 *380:8 9.41947e-07
44 *373:74 *719:14 7.89056e-06
45 *373:74 *1100:8 0
46 *373:78 *1215:A 2.71921e-06
47 *373:104 *378:8 1.31478e-06
48 *373:104 *729:42 2.48278e-06
49 *373:104 *729:53 1.09842e-06
50 *1170:B *373:104 8.45637e-06
51 *57:10 *373:12 0
52 *364:28 *373:68 4.86221e-07
53 *364:36 *373:68 2.97966e-06
54 *371:6 *1175:A 3.89037e-06
55 *371:18 *373:68 0
56 *371:18 *373:74 3.74016e-08
57 *371:61 *373:12 0
58 *371:72 *373:74 1.12205e-07
59 *371:72 *373:104 8.70345e-06
60 *372:8 *1161:B 3.6269e-06
61 *372:8 *373:37 8.20045e-06
*RES
1 *1160:Y *373:8 38.6237 
2 *373:8 *373:12 44.5135 
3 *373:12 *373:14 10.6965 
4 *373:14 *373:20 36.0234 
5 *373:20 *1360:B 35.057 
6 *373:20 *373:33 33.2164 
7 *373:33 *373:37 23.301 
8 *373:37 *1338:B 36.5393 
9 *373:37 *1161:B 37.779 
10 *373:14 *1349:A 17.2 
11 *373:8 *373:68 48.6639 
12 *373:68 *373:74 42.7517 
13 *373:74 *373:78 24.9905 
14 *373:78 *1345:A 38.9053 
15 *373:78 *373:91 30.5706 
16 *373:91 *1171:B 17.2 
17 *373:91 *373:104 47.831 
18 *373:104 *1315:B 29.501 
19 *373:68 *1175:A 35.4697 
*END

*D_NET *374 0.000161977
*CONN
*I *1472:B I *D OR3x1_ASAP7_75t_R
*I *1162:B I *D NOR2x1_ASAP7_75t_R
*I *1161:Y O *D AND2x2_ASAP7_75t_R
*CAP
1 *1472:B 1.05011e-06
2 *1162:B 1.453e-05
3 *1161:Y 3.97809e-06
4 *374:10 3.94773e-05
5 *374:8 2.78753e-05
6 *1162:B *557:63 0
7 *1162:B *568:10 0
8 *1162:B *837:14 1.07534e-05
9 *1472:B *569:8 2.20493e-06
10 *374:8 *1161:A 8.87763e-06
11 *374:10 *477:12 0
12 *374:10 *478:12 0
13 *374:10 *1065:16 6.33206e-07
14 *374:10 *1102:12 2.68933e-07
15 *1159:B *374:8 1.25483e-05
16 *1161:B *374:10 9.94583e-06
17 *1162:A *1162:B 2.3189e-06
18 *1472:C *1472:B 5.41446e-06
19 *371:30 *374:8 3.68287e-06
20 *372:8 *374:10 1.22047e-07
21 *373:37 *374:10 1.82955e-05
*RES
1 *1161:Y *374:8 39.2134 
2 *374:8 *374:10 18.5845 
3 *374:10 *1162:B 45.0151 
4 *374:10 *1472:B 36.0045 
*END

*D_NET *375 5.27398e-05
*CONN
*I *1560:C I *D OR3x1_ASAP7_75t_R
*I *1169:A I *D NOR2x1_ASAP7_75t_R
*I *1167:Y O *D AND2x2_ASAP7_75t_R
*CAP
1 *1560:C 0
2 *1169:A 1.06576e-05
3 *1167:Y 7.29811e-06
4 *375:8 1.79557e-05
5 *1169:A *1169:B 2.28976e-06
6 *1169:A *376:18 5.24803e-06
7 *1169:A *631:81 3.67907e-06
8 *1169:A *636:10 5.61148e-06
9 *1169:A *799:22 0
10 *375:8 *799:22 0
11 *354:36 *375:8 0
*RES
1 *1167:Y *375:8 38.9053 
2 *375:8 *1169:A 45.0151 
3 *375:8 *1560:C 34.4 
*END

*D_NET *376 0.000128322
*CONN
*I *1560:A I *D OR3x1_ASAP7_75t_R
*I *1169:B I *D NOR2x1_ASAP7_75t_R
*I *1168:Y O *D AND2x2_ASAP7_75t_R
*CAP
1 *1560:A 0
2 *1169:B 8.50795e-06
3 *1168:Y 8.98369e-06
4 *376:18 2.08448e-05
5 *376:12 1.977e-05
6 *376:8 1.64168e-05
7 *376:8 *438:10 0
8 *376:12 *437:8 1.43377e-05
9 *376:18 *631:81 1.96009e-06
10 *376:18 *636:10 0
11 *1169:A *1169:B 2.28976e-06
12 *1169:A *376:18 5.24803e-06
13 *1263:B *376:12 1.02586e-05
14 *352:40 *376:12 1.57457e-05
15 *352:55 *376:8 3.95845e-06
*RES
1 *1168:Y *376:8 41.158 
2 *376:8 *376:12 24.1527 
3 *376:12 *376:18 45.6633 
4 *376:18 *1169:B 22.5483 
5 *376:12 *1560:A 17.2 
*END

*D_NET *377 8.36061e-05
*CONN
*I *1450:A I *D OR3x1_ASAP7_75t_R
*I *1172:A I *D NOR2x1_ASAP7_75t_R
*I *1170:Y O *D AND2x4_ASAP7_75t_R
*CAP
1 *1450:A 2.37931e-06
2 *1172:A 6.90041e-06
3 *1170:Y 4.83056e-06
4 *377:8 1.41103e-05
5 *1172:A *1172:B 2.00223e-05
6 *1172:A *378:8 4.83862e-06
7 *1172:A *557:118 5.52652e-06
8 *1450:A *1450:B 5.85387e-06
9 *377:8 *378:8 1.15587e-05
10 *377:8 *874:31 0
11 *1315:B *1450:A 7.58545e-06
*RES
1 *1170:Y *377:8 38.9053 
2 *377:8 *1172:A 42.2843 
3 *377:8 *1450:A 36.5393 
*END

*D_NET *378 0.000138837
*CONN
*I *1450:B I *D OR3x1_ASAP7_75t_R
*I *1172:B I *D NOR2x1_ASAP7_75t_R
*I *1171:Y O *D AND2x2_ASAP7_75t_R
*CAP
1 *1450:B 2.03047e-06
2 *1172:B 1.77443e-05
3 *1171:Y 1.58022e-05
4 *378:8 3.5577e-05
5 *1172:B *557:106 2.78959e-06
6 *1172:B *557:118 2.28976e-06
7 *1172:B *558:10 0
8 *1450:B *557:110 2.03526e-06
9 *378:8 *729:42 7.47402e-07
10 *378:8 *729:53 1.62323e-05
11 *378:8 *730:48 0
12 *1172:A *1172:B 2.00223e-05
13 *1172:A *378:8 4.83862e-06
14 *1450:A *1450:B 5.85387e-06
15 *373:104 *378:8 1.31478e-06
16 *377:8 *378:8 1.15587e-05
*RES
1 *1171:Y *378:8 48.4791 
2 *378:8 *1172:B 48.2241 
3 *378:8 *1450:B 36.0045 
*END

*D_NET *379 0.000106475
*CONN
*I *1454:A I *D OR3x1_ASAP7_75t_R
*I *1176:B I *D NOR2x2_ASAP7_75t_R
*I *1174:Y O *D AND2x4_ASAP7_75t_R
*CAP
1 *1454:A 0
2 *1176:B 2.08751e-05
3 *1174:Y 8.51579e-06
4 *379:12 2.31927e-05
5 *379:8 1.08334e-05
6 *1176:B *1176:A 1.23408e-05
7 *1176:B *1454:B 2.46694e-05
8 *379:8 *380:8 0
9 *379:8 *481:8 0
10 *379:12 *1454:B 5.19475e-06
11 *371:12 *379:8 4.26751e-07
12 *371:16 *379:8 4.26751e-07
*RES
1 *1174:Y *379:8 38.9053 
2 *379:8 *379:12 19.3393 
3 *379:12 *1176:B 33.2448 
4 *379:12 *1454:A 17.2 
*END

*D_NET *380 0.000115551
*CONN
*I *1454:B I *D OR3x1_ASAP7_75t_R
*I *1176:A I *D NOR2x2_ASAP7_75t_R
*I *1175:Y O *D AND2x2_ASAP7_75t_R
*CAP
1 *1454:B 9.55139e-06
2 *1176:A 4.05125e-06
3 *1175:Y 2.01033e-05
4 *380:10 1.36026e-05
5 *380:8 2.01033e-05
6 *380:8 *1100:8 4.99242e-06
7 *1176:B *1176:A 1.23408e-05
8 *1176:B *1454:B 2.46694e-05
9 *371:12 *380:8 0
10 *373:74 *380:8 9.41947e-07
11 *379:8 *380:8 0
12 *379:12 *1454:B 5.19475e-06
*RES
1 *1175:Y *380:8 48.4791 
2 *380:8 *380:10 17.2 
3 *380:10 *1176:A 20.9438 
4 *380:10 *1454:B 26.292 
*END

*D_NET *381 7.63117e-05
*CONN
*I *1565:C I *D OR3x1_ASAP7_75t_R
*I *1181:A I *D NOR2x1_ASAP7_75t_R
*I *1179:Y O *D AND2x2_ASAP7_75t_R
*CAP
1 *1565:C 2.73988e-06
2 *1181:A 2.75475e-05
3 *1179:Y 5.35781e-06
4 *381:8 3.56452e-05
5 *1181:A *1181:B 2.25787e-06
6 *1565:C *638:8 5.0551e-07
7 *381:8 *382:8 2.25787e-06
*RES
1 *1179:Y *381:8 38.9053 
2 *381:8 *1181:A 48.1674 
3 *381:8 *1565:C 36.0045 
*END

*D_NET *382 9.39436e-05
*CONN
*I *1565:A I *D OR3x1_ASAP7_75t_R
*I *1181:B I *D NOR2x1_ASAP7_75t_R
*I *1180:Y O *D AND2x2_ASAP7_75t_R
*CAP
1 *1565:A 3.1373e-06
2 *1181:B 1.03333e-05
3 *1180:Y 1.51662e-05
4 *382:8 2.86368e-05
5 *1181:B *1566:B 0
6 *1181:B *631:10 1.97111e-05
7 *1181:B *631:31 2.78959e-06
8 *1181:B *825:8 2.83874e-07
9 *1565:A *1565:B 2.03526e-06
10 *382:8 *796:28 2.61531e-06
11 *382:8 *825:8 2.38884e-06
12 *382:8 *1025:29 2.33013e-06
13 *1181:A *1181:B 2.25787e-06
14 *381:8 *382:8 2.25787e-06
*RES
1 *1180:Y *382:8 47.3528 
2 *382:8 *1181:B 43.4107 
3 *382:8 *1565:A 36.0045 
*END

*D_NET *383 3.26002e-05
*CONN
*I *1196:A1 I *D OAI21x1_ASAP7_75t_R
*I *1192:Y O *D OR2x2_ASAP7_75t_R
*CAP
1 *1196:A1 5.15048e-06
2 *1192:Y 8.52377e-06
3 *383:8 1.36743e-05
4 *383:8 *387:8 5.25164e-06
5 *383:8 *398:53 0
6 *245:12 *383:8 0
*RES
1 *1192:Y *383:8 40.0317 
2 *383:8 *1196:A1 37.0741 
*END

*D_NET *384 1.43628e-05
*CONN
*I *1194:A1 I *D OA21x2_ASAP7_75t_R
*I *1193:Y O *D INVx1_ASAP7_75t_R
*CAP
1 *1194:A1 6.54251e-06
2 *1193:Y 6.54251e-06
3 *1194:A1 *749:27 1.27782e-06
*RES
1 *1193:Y *1194:A1 38.1438 
*END

*D_NET *385 0.000145754
*CONN
*I *1196:A2 I *D OAI21x1_ASAP7_75t_R
*I *1194:Y O *D OA21x2_ASAP7_75t_R
*CAP
1 *1196:A2 0
2 *1194:Y 2.736e-05
3 *385:20 1.95779e-06
4 *385:14 1.98347e-05
5 *385:6 4.5237e-05
6 *385:6 *1465:B 6.86929e-06
7 *385:6 *399:88 5.22376e-07
8 *385:6 *759:31 1.36155e-06
9 *385:14 *387:18 2.19681e-05
10 *385:14 *398:53 9.82845e-06
11 *385:14 *398:66 1.00837e-05
12 *385:14 *399:58 2.22036e-08
13 *385:14 *961:20 7.09277e-07
*RES
1 *1194:Y *385:6 34.8492 
2 *385:6 *385:14 44.4942 
3 *385:14 *385:20 35.4325 
4 *385:20 *1196:A2 17.2 
*END

*D_NET *386 0.000129019
*CONN
*I *1196:B I *D OAI21x1_ASAP7_75t_R
*I *1195:Y O *D OA21x2_ASAP7_75t_R
*CAP
1 *1196:B 0
2 *1195:Y 1.01524e-05
3 *386:14 1.97117e-05
4 *386:8 2.98641e-05
5 *386:8 *1460:A 4.8528e-06
6 *386:8 *399:48 6.1473e-07
7 *386:8 *399:54 2.47522e-06
8 *386:14 *398:47 1.16944e-05
9 *386:14 *563:8 1.67148e-05
10 *386:14 *752:20 9.80084e-07
11 *90:8 *386:14 7.85736e-06
12 *90:16 *386:8 1.14451e-05
13 *245:12 *386:14 1.26567e-05
*RES
1 *1195:Y *386:8 42.4224 
2 *386:8 *386:14 34.01 
3 *386:14 *1196:B 17.2 
*END

*D_NET *387 0.000607292
*CONN
*I *1208:A1 I *D AO21x2_ASAP7_75t_R
*I *1995:A I *D BUFx3_ASAP7_75t_R
*I *1196:Y O *D OAI21x1_ASAP7_75t_R
*CAP
1 *1208:A1 0
2 *1995:A 0
3 *1196:Y 2.06723e-06
4 *387:47 9.3526e-06
5 *387:34 1.34257e-05
6 *387:28 2.87145e-05
7 *387:24 0.000125442
8 *387:18 0.000132971
9 *387:8 1.55323e-05
10 *387:8 *398:53 0
11 *387:18 *398:53 3.07968e-05
12 *387:24 *389:26 0.000148762
13 *387:24 *398:125 7.53152e-06
14 *387:24 *730:24 2.28535e-05
15 *387:24 *811:20 2.2217e-07
16 *387:24 *963:20 4.94918e-06
17 *387:24 *964:20 6.74888e-06
18 *387:28 *390:29 1.09649e-06
19 *387:28 *398:12 6.73285e-07
20 *387:34 *390:18 1.96009e-06
21 *387:34 *721:24 0
22 *387:34 *811:8 1.68025e-06
23 *387:47 *390:29 3.5269e-06
24 *387:47 *398:12 2.87285e-06
25 *387:47 *399:20 0
26 *237:18 *387:24 1.88936e-05
27 *383:8 *387:8 5.25164e-06
28 *385:14 *387:18 2.19681e-05
*RES
1 *1196:Y *387:8 36.1834 
2 *387:8 *387:18 48.0999 
3 *387:18 *387:24 44.68 
4 *387:24 *387:28 13.261 
5 *387:28 *387:34 44.2554 
6 *387:34 *1995:A 17.2 
7 *387:28 *387:47 38.838 
8 *387:47 *1208:A1 17.2 
*END

*D_NET *388 6.15095e-05
*CONN
*I *1998:A I *D BUFx3_ASAP7_75t_R
*I *1199:A I *D NOR2x1_ASAP7_75t_R
*I *1197:Y O *D OR4x1_ASAP7_75t_R
*CAP
1 *1998:A 5.79451e-06
2 *1199:A 0
3 *1197:Y 1.3593e-05
4 *388:10 1.93876e-05
5 *1998:A *1434:A1 0
6 *1998:A *963:8 8.49118e-06
7 *388:10 *389:34 7.84772e-07
8 *388:10 *763:20 0
9 *166:8 *388:10 2.8275e-06
10 *166:14 *1998:A 5.13209e-07
11 *166:14 *388:10 4.09429e-06
12 *167:10 *388:10 6.02341e-06
*RES
1 *1197:Y *388:10 45.0151 
2 *388:10 *1199:A 34.4 
3 *388:10 *1998:A 40.0317 
*END

*D_NET *389 0.000457437
*CONN
*I *1199:B I *D NOR2x1_ASAP7_75t_R
*I *1198:Y O *D OR4x1_ASAP7_75t_R
*CAP
1 *1199:B 0
2 *1198:Y 2.32173e-06
3 *389:34 2.48211e-05
4 *389:26 0.000133622
5 *389:18 0.000118654
6 *389:8 1.2175e-05
7 *389:8 *759:31 4.39235e-06
8 *389:18 *398:66 2.77387e-08
9 *389:18 *399:58 5.40771e-06
10 *389:26 *961:20 2.71682e-06
11 *389:34 *398:20 0
12 *389:34 *963:20 1.0432e-06
13 *389:34 *964:20 7.74129e-07
14 *166:14 *389:34 1.93482e-06
15 *387:24 *389:26 0.000148762
16 *388:10 *389:34 7.84772e-07
*RES
1 *1198:Y *389:8 35.9956 
2 *389:8 *389:18 44.3789 
3 *389:18 *389:26 48.7649 
4 *389:26 *389:34 44.7426 
5 *389:34 *1199:B 17.2 
*END

*D_NET *390 0.000248681
*CONN
*I *1206:C I *D AOI221x1_ASAP7_75t_R
*I *1200:B I *D NOR2x1_ASAP7_75t_R
*I *1199:Y O *D NOR2x1_ASAP7_75t_R
*CAP
1 *1206:C 0
2 *1200:B 0
3 *1199:Y 1.43685e-06
4 *390:29 7.52946e-05
5 *390:18 7.35784e-06
6 *390:12 0.000111189
7 *390:8 2.99731e-05
8 *390:8 *1434:A1 9.63073e-07
9 *390:12 *398:12 0
10 *390:12 *398:14 0
11 *390:12 *398:20 0
12 *390:12 *721:22 2.55227e-06
13 *390:18 *721:24 1.64348e-06
14 *390:29 *398:12 0
15 *390:29 *399:14 2.02493e-06
16 *390:29 *1037:29 9.17549e-06
17 *166:14 *390:8 4.87057e-07
18 *387:28 *390:29 1.09649e-06
19 *387:34 *390:18 1.96009e-06
20 *387:47 *390:29 3.5269e-06
*RES
1 *1199:Y *390:8 35.8079 
2 *390:8 *390:12 27.3726 
3 *390:12 *390:18 40.3132 
4 *390:18 *1200:B 17.2 
5 *390:12 *390:29 42.5022 
6 *390:29 *1206:C 34.4 
*END

*D_NET *391 0.00012673
*CONN
*I *1208:A2 I *D AO21x2_ASAP7_75t_R
*I *1994:A I *D BUFx3_ASAP7_75t_R
*I *1200:Y O *D NOR2x1_ASAP7_75t_R
*CAP
1 *1208:A2 5.64059e-06
2 *1994:A 5.58332e-06
3 *1200:Y 3.30093e-05
4 *391:10 1.48698e-05
5 *391:8 3.66552e-05
6 *1208:A2 *1208:B 2.69176e-05
7 *1994:A *1993:A 0
8 *1994:A *397:16 0
9 *1994:A *399:8 3.31918e-07
10 *1994:A *399:20 3.67836e-06
11 *391:10 *1993:A 0
12 *391:10 *1029:10 4.35576e-08
*RES
1 *1200:Y *391:8 48.8403 
2 *391:8 *391:10 1.6895 
3 *391:10 *1994:A 38.3422 
4 *391:10 *1208:A2 43.492 
*END

*D_NET *392 6.86141e-05
*CONN
*I *1206:A2 I *D AOI221x1_ASAP7_75t_R
*I *1201:Y O *D INVx1_ASAP7_75t_R
*CAP
1 *1206:A2 1.51588e-05
2 *1201:Y 1.56298e-05
3 *392:8 3.07886e-05
4 *1206:A2 *1037:29 6.72662e-07
5 *1201:A *392:8 6.07405e-06
6 *1205:C *1206:A2 0
7 *1703:A *392:8 2.90269e-07
*RES
1 *1201:Y *392:8 41.3527 
2 *392:8 *1206:A2 43.4107 
*END

*D_NET *393 0.000107693
*CONN
*I *1203:A2 I *D AO21x1_ASAP7_75t_R
*I *1202:Y O *D OR2x2_ASAP7_75t_R
*CAP
1 *1203:A2 0
2 *1202:Y 4.43068e-06
3 *393:14 2.60844e-05
4 *393:8 3.05151e-05
5 *393:14 *1434:A1 6.36498e-06
6 *393:14 *542:12 2.21948e-05
7 *393:14 *755:10 1.80733e-05
8 *393:14 *884:29 2.98814e-08
*RES
1 *1202:Y *393:8 36.0045 
2 *393:8 *393:14 41.8093 
3 *393:14 *1203:A2 17.2 
*END

*D_NET *394 0.000188946
*CONN
*I *1206:B1 I *D AOI221x1_ASAP7_75t_R
*I *1203:Y O *D AO21x1_ASAP7_75t_R
*CAP
1 *1206:B1 0
2 *1203:Y 6.41819e-06
3 *394:14 5.11541e-05
4 *394:12 5.11541e-05
5 *394:10 6.41819e-06
6 *394:10 *721:24 1.19384e-05
7 *394:14 *1205:B 8.2113e-06
8 *394:14 *396:6 6.10603e-06
9 *394:14 *397:14 2.66207e-05
10 *394:14 *1037:6 2.90759e-06
11 *394:14 *1037:19 2.75796e-06
12 *1205:A *394:14 3.89037e-06
13 *1205:C *394:14 7.35354e-06
14 *283:27 *394:10 2.83874e-07
15 *283:27 *394:14 3.73144e-06
*RES
1 *1203:Y *394:10 39.4118 
2 *394:10 *394:12 17.2 
3 *394:12 *394:14 35.8333 
4 *394:14 *1206:B1 17.2 
*END

*D_NET *395 3.65595e-05
*CONN
*I *1205:B I *D AND3x1_ASAP7_75t_R
*I *1204:Y O *D INVx1_ASAP7_75t_R
*CAP
1 *1205:B 4.22568e-06
2 *1204:Y 4.22568e-06
3 *1205:B *1037:19 1.98969e-05
4 *394:14 *1205:B 8.2113e-06
*RES
1 *1204:Y *1205:B 39.7482 
*END

*D_NET *396 9.33023e-05
*CONN
*I *1206:B2 I *D AOI221x1_ASAP7_75t_R
*I *1205:Y O *D AND3x1_ASAP7_75t_R
*CAP
1 *1206:B2 0
2 *1205:Y 2.3631e-05
3 *396:12 4.05938e-06
4 *396:6 2.76904e-05
5 *396:6 *397:14 2.61935e-05
6 *396:6 *1037:29 5.62196e-06
7 *394:14 *396:6 6.10603e-06
*RES
1 *1205:Y *396:6 34.8492 
2 *396:6 *396:12 37.2158 
3 *396:12 *1206:B2 17.2 
*END

*D_NET *397 0.000189154
*CONN
*I *1993:A I *D BUFx3_ASAP7_75t_R
*I *1208:B I *D AO21x2_ASAP7_75t_R
*I *1206:Y O *D AOI221x1_ASAP7_75t_R
*CAP
1 *1993:A 1.03965e-05
2 *1208:B 2.04995e-05
3 *1206:Y 4.41691e-06
4 *397:16 4.54307e-05
5 *397:14 1.76796e-05
6 *397:8 7.56178e-06
7 *1208:B *1029:10 2.28976e-06
8 *1993:A *398:8 6.10236e-07
9 *1993:A *1029:10 5.37866e-07
10 *397:16 *399:20 0
11 *1205:C *397:16 0
12 *1208:A2 *1208:B 2.69176e-05
13 *1994:A *1993:A 0
14 *1994:A *397:16 0
15 *391:10 *1993:A 0
16 *394:14 *397:14 2.66207e-05
17 *396:6 *397:14 2.61935e-05
*RES
1 *1206:Y *397:8 37.2158 
2 *397:8 *397:14 42.4224 
3 *397:14 *397:16 10.137 
4 *397:16 *1208:B 48.3055 
5 *397:16 *1993:A 41.158 
*END

*D_NET *398 0.00114245
*CONN
*I *1600:A2 I *D AO21x1_ASAP7_75t_R
*I *1434:A2 I *D AO21x1_ASAP7_75t_R
*I *1453:A2 I *D AO21x1_ASAP7_75t_R
*I *1457:A2 I *D AO21x1_ASAP7_75t_R
*I *1469:A2 I *D AO21x1_ASAP7_75t_R
*I *1210:A2 I *D AO21x1_ASAP7_75t_R
*I *1465:A2 I *D AO21x1_ASAP7_75t_R
*I *1461:A2 I *D AO21x1_ASAP7_75t_R
*I *1207:Y O *D AOI21x1_ASAP7_75t_R
*CAP
1 *1600:A2 0
2 *1434:A2 0
3 *1453:A2 0
4 *1457:A2 2.04069e-06
5 *1469:A2 0
6 *1210:A2 1.70201e-06
7 *1465:A2 0
8 *1461:A2 3.49345e-06
9 *1207:Y 6.10579e-06
10 *398:133 6.42722e-06
11 *398:125 5.90324e-05
12 *398:112 2.46595e-06
13 *398:87 1.14627e-05
14 *398:72 5.24097e-05
15 *398:66 0.000126182
16 *398:53 9.59752e-05
17 *398:47 3.75928e-05
18 *398:34 5.23214e-05
19 *398:32 4.52393e-05
20 *398:30 1.99471e-05
21 *398:24 2.18061e-05
22 *398:20 5.95347e-05
23 *398:14 7.30137e-05
24 *398:12 0.000112932
25 *398:8 5.3561e-05
26 *1210:A2 *1210:A1 1.82733e-06
27 *1461:A2 *1461:B 1.35684e-06
28 *398:8 *1029:10 9.68107e-06
29 *398:12 *399:14 3.93824e-06
30 *398:12 *811:20 4.1427e-06
31 *398:12 *812:20 0
32 *398:20 *810:10 0
33 *398:30 *1927:A 0
34 *398:30 *399:117 0
35 *398:30 *754:18 4.12735e-05
36 *398:30 *962:8 4.79691e-06
37 *398:34 *753:31 1.26391e-06
38 *398:87 *567:8 1.64348e-06
39 *398:87 *749:27 2.22736e-06
40 *398:112 *1200:A 5.19475e-06
41 *398:112 *721:24 1.49407e-08
42 *398:125 *721:16 2.04351e-05
43 *398:125 *721:22 0
44 *398:125 *730:16 2.59259e-05
45 *398:125 *811:20 2.99007e-06
46 *398:133 *764:8 0
47 *1993:A *398:8 6.10236e-07
48 *60:8 *398:24 5.85387e-06
49 *60:8 *398:30 9.30483e-06
50 *96:10 *398:112 5.41446e-06
51 *100:10 *398:72 2.22632e-05
52 *181:10 *398:20 2.41931e-06
53 *181:10 *398:30 4.10928e-06
54 *237:10 *398:133 1.89667e-07
55 *237:16 *398:125 2.18494e-05
56 *237:18 *398:125 6.03405e-06
57 *237:28 *398:12 0
58 *245:8 *1461:A2 1.00976e-05
59 *245:8 *398:34 1.02895e-05
60 *334:10 *398:87 5.49212e-07
61 *383:8 *398:53 0
62 *385:14 *398:53 9.82845e-06
63 *385:14 *398:66 1.00837e-05
64 *386:14 *398:47 1.16944e-05
65 *387:8 *398:53 0
66 *387:18 *398:53 3.07968e-05
67 *387:24 *398:125 7.53152e-06
68 *387:28 *398:12 6.73285e-07
69 *387:47 *398:12 2.87285e-06
70 *389:18 *398:66 2.77387e-08
71 *389:34 *398:20 0
72 *390:12 *398:12 0
73 *390:12 *398:14 0
74 *390:12 *398:20 0
75 *390:29 *398:12 0
*RES
1 *1207:Y *398:8 38.6237 
2 *398:8 *398:12 32.0801 
3 *398:12 *398:14 4.16643 
4 *398:14 *398:20 39.905 
5 *398:20 *398:24 18.8045 
6 *398:24 *398:30 37.3323 
7 *398:30 *398:32 17.2 
8 *398:32 *398:34 21.9278 
9 *398:34 *1461:A2 19.8741 
10 *398:34 *398:47 38.6237 
11 *398:47 *398:53 32.895 
12 *398:53 *1465:A2 34.4 
13 *398:53 *398:66 40.4682 
14 *398:66 *398:72 42.4225 
15 *398:72 *1210:A2 35.4697 
16 *398:66 *398:87 43.6922 
17 *398:87 *1469:A2 17.2 
18 *398:32 *1457:A2 18.2696 
19 *398:24 *1453:A2 17.2 
20 *398:14 *398:112 36.8492 
21 *398:112 *1434:A2 17.2 
22 *398:12 *398:125 47.8169 
23 *398:125 *398:133 37.8162 
24 *398:133 *1600:A2 17.2 
*END

*D_NET *399 0.00114213
*CONN
*I *1599:B I *D AND2x2_ASAP7_75t_R
*I *1433:B I *D AND2x2_ASAP7_75t_R
*I *1452:B I *D AND2x2_ASAP7_75t_R
*I *1456:B I *D AND2x2_ASAP7_75t_R
*I *1460:B I *D AND2x2_ASAP7_75t_R
*I *1464:B I *D AND2x2_ASAP7_75t_R
*I *1468:B I *D AND2x2_ASAP7_75t_R
*I *1209:B I *D AND2x2_ASAP7_75t_R
*I *1208:Y O *D AO21x2_ASAP7_75t_R
*CAP
1 *1599:B 0
2 *1433:B 0
3 *1452:B 0
4 *1456:B 2.26675e-06
5 *1460:B 0
6 *1464:B 0
7 *1468:B 0
8 *1209:B 2.99966e-05
9 *1208:Y 1.21754e-06
10 *399:128 3.39035e-06
11 *399:117 3.82711e-05
12 *399:102 4.57692e-05
13 *399:88 7.74248e-06
14 *399:68 3.2567e-05
15 *399:66 4.85629e-05
16 *399:58 7.66688e-05
17 *399:54 7.0897e-05
18 *399:48 4.98028e-05
19 *399:44 5.78063e-05
20 *399:38 0.000145518
21 *399:36 0.000113097
22 *399:32 8.95375e-05
23 *399:26 6.86321e-05
24 *399:20 3.73754e-05
25 *399:14 3.56598e-05
26 *399:8 3.98356e-06
27 *1209:B *400:10 2.26897e-05
28 *399:20 *1600:B 5.85387e-06
29 *399:20 *756:31 1.81768e-06
30 *399:20 *765:10 2.81851e-06
31 *399:20 *765:20 3.31374e-05
32 *399:20 *1037:19 2.19482e-06
33 *399:26 *756:31 9.49598e-06
34 *399:32 *721:8 1.49407e-08
35 *399:32 *756:16 2.30405e-06
36 *399:32 *884:29 1.48544e-06
37 *399:36 *730:16 7.34629e-07
38 *399:36 *875:29 0
39 *399:36 *884:29 0
40 *399:38 *729:20 0
41 *399:38 *916:29 0
42 *399:44 *752:14 2.98049e-06
43 *399:44 *906:29 0
44 *399:54 *751:23 4.9137e-07
45 *399:88 *759:31 3.81019e-06
46 *399:102 *762:20 4.9137e-07
47 *399:117 *962:8 6.62618e-06
48 *399:128 *755:10 5.43721e-07
49 *1192:A *399:54 3.05836e-06
50 *1198:A *399:54 3.27358e-05
51 *1205:A *399:20 1.00467e-06
52 *1205:C *399:20 1.16447e-05
53 *1994:A *399:8 3.31918e-07
54 *1994:A *399:20 3.67836e-06
55 *81:8 *399:128 5.43721e-07
56 *90:8 *399:44 1.49407e-08
57 *91:23 *399:54 0
58 *169:8 *399:88 0
59 *170:25 *399:88 2.68255e-06
60 *282:8 *399:20 2.29213e-06
61 *286:10 *399:54 1.28895e-05
62 *385:6 *399:88 5.22376e-07
63 *385:14 *399:58 2.22036e-08
64 *386:8 *399:48 6.1473e-07
65 *386:8 *399:54 2.47522e-06
66 *387:47 *399:20 0
67 *389:18 *399:58 5.40771e-06
68 *390:29 *399:14 2.02493e-06
69 *397:16 *399:20 0
70 *398:12 *399:14 3.93824e-06
71 *398:30 *399:117 0
*RES
1 *1208:Y *399:8 35.4325 
2 *399:8 *399:14 36.1315 
3 *399:14 *399:20 46.4935 
4 *399:20 *399:26 37.779 
5 *399:26 *399:32 40.0293 
6 *399:32 *399:36 24.7753 
7 *399:36 *399:38 22.5096 
8 *399:38 *399:44 33.2396 
9 *399:44 *399:48 18.2696 
10 *399:48 *399:54 45.2785 
11 *399:54 *399:58 24.7753 
12 *399:58 *399:66 49.5009 
13 *399:66 *399:68 1.06965 
14 *399:68 *1209:B 28.9662 
15 *399:68 *1468:B 17.2 
16 *399:58 *399:88 39.318 
17 *399:88 *1464:B 17.2 
18 *399:48 *1460:B 17.2 
19 *399:38 *399:102 20.2974 
20 *399:102 *1456:B 35.4697 
21 *399:102 *399:117 43.3287 
22 *399:117 *1452:B 17.2 
23 *399:36 *399:128 36.3711 
24 *399:128 *1433:B 17.2 
25 *399:20 *1599:B 17.2 
*END

*D_NET *400 0.00011644
*CONN
*I *1210:B I *D AO21x1_ASAP7_75t_R
*I *1209:Y O *D AND2x2_ASAP7_75t_R
*CAP
1 *1210:B 1.16163e-05
2 *1209:Y 1.1335e-05
3 *400:10 2.29513e-05
4 *1210:B *1210:A1 3.60576e-05
5 *400:10 *1633:A 8.06923e-06
6 *1209:B *400:10 2.26897e-05
7 *100:8 *1210:B 3.72098e-06
*RES
1 *1209:Y *400:10 43.0989 
2 *400:10 *1210:B 44.5617 
*END

*D_NET *401 4.65686e-05
*CONN
*I *1226:A1 I *D OA21x2_ASAP7_75t_R
*I *1222:Y O *D OR2x2_ASAP7_75t_R
*CAP
1 *1226:A1 1.35158e-05
2 *1222:Y 3.03426e-06
3 *401:8 1.655e-05
4 *1226:A1 *1226:A2 3.68287e-06
5 *1226:A1 *1226:B 1.56713e-06
6 *1226:A1 *405:8 0
7 *401:8 *403:18 4.10928e-06
8 *401:8 *1039:8 4.10928e-06
*RES
1 *1222:Y *401:8 37.779 
2 *401:8 *1226:A1 40.8179 
*END

*D_NET *402 0.000121729
*CONN
*I *1224:A2 I *D OA21x2_ASAP7_75t_R
*I *1223:Y O *D INVx1_ASAP7_75t_R
*CAP
1 *1224:A2 4.97863e-06
2 *1223:Y 3.60889e-05
3 *402:8 4.10675e-05
4 *1224:A2 *403:8 5.51397e-07
5 *1224:A2 *403:12 7.91499e-06
6 *11:6 *402:8 4.34114e-06
7 *127:16 *1224:A2 3.90258e-06
8 *127:16 *402:8 2.28836e-05
*RES
1 *1223:Y *402:8 48.8403 
2 *402:8 *1224:A2 38.2855 
*END

*D_NET *403 0.000308719
*CONN
*I *1226:A2 I *D OA21x2_ASAP7_75t_R
*I *1224:Y O *D OA21x2_ASAP7_75t_R
*CAP
1 *1226:A2 8.14902e-07
2 *1224:Y 1.59292e-05
3 *403:18 2.36188e-05
4 *403:14 9.51701e-05
5 *403:12 8.65237e-05
6 *403:8 3.00868e-05
7 *1226:A2 *405:8 5.0551e-07
8 *403:12 *776:10 9.93283e-06
9 *403:12 *930:31 1.02522e-06
10 *403:14 *768:8 1.05718e-05
11 *403:14 *769:10 6.49184e-07
12 *403:14 *776:8 1.26391e-06
13 *403:14 *777:10 6.89653e-06
14 *403:14 *778:8 5.61049e-06
15 *403:18 *1222:A 5.13626e-07
16 *403:18 *408:22 0
17 *403:18 *923:31 5.07312e-07
18 *1224:A2 *403:8 5.51397e-07
19 *1224:A2 *403:12 7.91499e-06
20 *1226:A1 *1226:A2 3.68287e-06
21 *126:8 *403:12 1.05693e-06
22 *127:16 *403:8 1.78333e-06
23 *401:8 *403:18 4.10928e-06
*RES
1 *1224:Y *403:8 41.3527 
2 *403:8 *403:12 29.5897 
3 *403:12 *403:14 44.3905 
4 *403:14 *403:18 33.5318 
5 *403:18 *1226:A2 35.4697 
*END

*D_NET *404 0.000103746
*CONN
*I *1226:B I *D OA21x2_ASAP7_75t_R
*I *1225:Y O *D OA21x2_ASAP7_75t_R
*CAP
1 *1226:B 6.5164e-06
2 *1225:Y 2.36446e-05
3 *404:10 3.0161e-05
4 *1226:B *405:8 6.70433e-06
5 *1226:B *408:10 1.04475e-06
6 *404:10 *408:10 9.94583e-06
7 *404:10 *769:10 1.31643e-05
8 *404:10 *769:23 2.84286e-06
9 *404:10 *1039:8 4.41094e-06
10 *1226:A1 *1226:B 1.56713e-06
11 *117:12 *404:10 3.7437e-06
*RES
1 *1225:Y *404:10 49.1804 
2 *404:10 *1226:B 40.2831 
*END

*D_NET *405 0.00015284
*CONN
*I *1237:A1 I *D OAI21x1_ASAP7_75t_R
*I *1239:A1 I *D OA21x2_ASAP7_75t_R
*I *1226:Y O *D OA21x2_ASAP7_75t_R
*CAP
1 *1237:A1 0
2 *1239:A1 0
3 *1226:Y 2.54872e-05
4 *405:22 1.97627e-05
5 *405:14 3.92636e-05
6 *405:8 4.49881e-05
7 *405:14 *409:10 0
8 *405:14 *1039:8 0
9 *405:22 *1239:A2 1.27039e-05
10 *405:22 *1239:B 2.6409e-06
11 *405:22 *409:10 7.84037e-07
12 *1226:A1 *405:8 0
13 *1226:A2 *405:8 5.0551e-07
14 *1226:B *405:8 6.70433e-06
*RES
1 *1226:Y *405:8 46.701 
2 *405:8 *405:14 28.7147 
3 *405:14 *405:22 46.5062 
4 *405:22 *1239:A1 17.2 
5 *405:14 *1237:A1 17.2 
*END

*D_NET *406 0.000197566
*CONN
*I *1228:A I *D INVx1_ASAP7_75t_R
*I *1235:B1 I *D OAI22x1_ASAP7_75t_R
*I *1227:Y O *D OR4x1_ASAP7_75t_R
*CAP
1 *1228:A 0
2 *1235:B1 0
3 *1227:Y 6.45951e-06
4 *406:22 2.10807e-05
5 *406:14 6.90231e-05
6 *406:8 5.4402e-05
7 *406:14 *1232:A2 1.79737e-06
8 *406:14 *1236:A1 0
9 *406:22 *408:28 0
10 *1231:A *406:14 1.09067e-06
11 *1234:A *406:22 7.86436e-06
12 *123:10 *406:14 5.22486e-06
13 *124:10 *406:14 1.23117e-05
14 *171:8 *406:22 0
15 *172:8 *406:22 2.03526e-06
16 *173:12 *406:14 4.97342e-06
17 *173:29 *406:14 1.35684e-06
18 *320:26 *406:14 9.94583e-06
*RES
1 *1227:Y *406:8 37.0741 
2 *406:8 *406:14 46.9591 
3 *406:14 *406:22 47.0977 
4 *406:22 *1235:B1 17.2 
5 *406:14 *1228:A 17.2 
*END

*D_NET *407 5.47216e-05
*CONN
*I *1230:A I *D NAND2x1_ASAP7_75t_R
*I *1228:Y O *D INVx1_ASAP7_75t_R
*CAP
1 *1230:A 1.48084e-05
2 *1228:Y 1.48084e-05
3 *1230:A *1236:A1 3.05302e-06
4 *1230:A *1236:A2 3.46317e-06
5 *1230:A *1236:B 5.85387e-06
6 *1230:A *408:28 8.66418e-06
7 *1230:A *415:6 1.35684e-06
8 *1230:A *415:23 2.71368e-06
*RES
1 *1228:Y *1230:A 46.1661 
*END

*D_NET *408 0.000294012
*CONN
*I *1230:B I *D NAND2x1_ASAP7_75t_R
*I *1235:B2 I *D OAI22x1_ASAP7_75t_R
*I *1229:Y O *D OR4x1_ASAP7_75t_R
*CAP
1 *1230:B 0
2 *1235:B2 2.95274e-06
3 *1229:Y 2.58083e-05
4 *408:28 3.11537e-05
5 *408:22 4.54055e-05
6 *408:16 3.03742e-05
7 *408:10 3.8978e-05
8 *408:10 *1222:A 8.26996e-06
9 *408:10 *769:10 4.17223e-06
10 *408:10 *769:21 5.85387e-06
11 *408:10 *1039:8 1.02072e-05
12 *408:16 *1222:A 2.71274e-05
13 *408:22 *409:10 1.56713e-06
14 *408:22 *414:8 0
15 *408:28 *1236:A2 2.03383e-05
16 *408:28 *409:10 3.16328e-06
17 *1222:B *408:16 1.89851e-05
18 *1226:B *408:10 1.04475e-06
19 *1230:A *408:28 8.66418e-06
20 *403:18 *408:22 0
21 *404:10 *408:10 9.94583e-06
22 *406:22 *408:28 0
*RES
1 *1229:Y *408:10 49.1804 
2 *408:10 *408:16 46.701 
3 *408:16 *408:22 29.3629 
4 *408:22 *408:28 36.7371 
5 *408:28 *1235:B2 36.0045 
6 *408:22 *1230:B 17.2 
*END

*D_NET *409 8.29253e-05
*CONN
*I *1237:A2 I *D OAI21x1_ASAP7_75t_R
*I *1239:A2 I *D OA21x2_ASAP7_75t_R
*I *1230:Y O *D NAND2x1_ASAP7_75t_R
*CAP
1 *1237:A2 0
2 *1239:A2 6.55451e-06
3 *1230:Y 1.6404e-05
4 *409:10 2.29585e-05
5 *1239:A2 *1239:B 1.52651e-06
6 *1239:A2 *415:23 1.03816e-05
7 *409:10 *414:8 5.79724e-07
8 *409:10 *415:23 6.30218e-06
9 *405:14 *409:10 0
10 *405:22 *1239:A2 1.27039e-05
11 *405:22 *409:10 7.84037e-07
12 *408:22 *409:10 1.56713e-06
13 *408:28 *409:10 3.16328e-06
*RES
1 *1230:Y *409:10 47.0411 
2 *409:10 *1239:A2 43.354 
3 *409:10 *1237:A2 34.4 
*END

*D_NET *410 2.9038e-05
*CONN
*I *1232:A2 I *D AO21x1_ASAP7_75t_R
*I *1231:Y O *D OR2x2_ASAP7_75t_R
*CAP
1 *1232:A2 1.36203e-05
2 *1231:Y 1.36203e-05
3 *406:14 *1232:A2 1.79737e-06
*RES
1 *1231:Y *1232:A2 41.8876 
*END

*D_NET *411 3.28309e-05
*CONN
*I *1236:A1 I *D AO21x1_ASAP7_75t_R
*I *1232:Y O *D AO21x1_ASAP7_75t_R
*CAP
1 *1236:A1 1.4889e-05
2 *1232:Y 1.4889e-05
3 *1230:A *1236:A1 3.05302e-06
4 *406:14 *1236:A1 0
*RES
1 *1232:Y *1236:A1 41.8876 
*END

*D_NET *412 0.000167714
*CONN
*I *1234:B I *D AND3x1_ASAP7_75t_R
*I *1235:A1 I *D OAI22x1_ASAP7_75t_R
*I *1233:Y O *D INVx1_ASAP7_75t_R
*CAP
1 *1234:B 1.52872e-05
2 *1235:A1 0
3 *1233:Y 9.06379e-06
4 *412:10 2.60954e-05
5 *412:8 1.9872e-05
6 *1234:B *1236:A2 1.46448e-05
7 *1234:B *413:8 2.55346e-06
8 *412:8 *414:16 2.12481e-06
9 *412:10 *1236:A2 2.70181e-05
10 *412:10 *414:16 1.31716e-05
11 *319:10 *412:10 1.60967e-05
12 *319:23 *1234:B 1.87296e-05
13 *319:23 *412:10 3.05617e-06
*RES
1 *1233:Y *412:8 38.1438 
2 *412:8 *412:10 15.2055 
3 *412:10 *1235:A1 34.4 
4 *412:10 *1234:B 49.237 
*END

*D_NET *413 0.000100723
*CONN
*I *1236:A2 I *D AO21x1_ASAP7_75t_R
*I *1234:Y O *D AND3x1_ASAP7_75t_R
*CAP
1 *1236:A2 1.30072e-05
2 *1234:Y 3.34523e-06
3 *413:8 1.63524e-05
4 *1230:A *1236:A2 3.46317e-06
5 *1234:B *1236:A2 1.46448e-05
6 *1234:B *413:8 2.55346e-06
7 *408:28 *1236:A2 2.03383e-05
8 *412:10 *1236:A2 2.70181e-05
*RES
1 *1234:Y *413:8 36.0045 
2 *413:8 *1236:A2 49.5488 
*END

*D_NET *414 0.000133839
*CONN
*I *1236:B I *D AO21x1_ASAP7_75t_R
*I *1235:Y O *D OAI22x1_ASAP7_75t_R
*CAP
1 *1236:B 2.75748e-06
2 *1235:Y 1.2292e-05
3 *414:16 2.29044e-05
4 *414:8 3.24389e-05
5 *414:8 *415:12 1.31716e-05
6 *414:8 *415:23 1.63973e-05
7 *1230:A *1236:B 5.85387e-06
8 *319:10 *414:8 1.21471e-05
9 *408:22 *414:8 0
10 *409:10 *414:8 5.79724e-07
11 *412:8 *414:16 2.12481e-06
12 *412:10 *414:16 1.31716e-05
*RES
1 *1235:Y *414:8 48.4791 
2 *414:8 *414:16 47.0411 
3 *414:16 *1236:B 36.0045 
*END

*D_NET *415 0.000134649
*CONN
*I *1239:B I *D OA21x2_ASAP7_75t_R
*I *1237:B I *D OAI21x1_ASAP7_75t_R
*I *1236:Y O *D AO21x1_ASAP7_75t_R
*CAP
1 *1239:B 6.89593e-06
2 *1237:B 0
3 *1236:Y 2.6076e-06
4 *415:23 2.67509e-05
5 *415:12 2.39932e-06
6 *415:6 2.48619e-05
7 *415:23 *416:10 1.07573e-06
8 *1230:A *415:6 1.35684e-06
9 *1230:A *415:23 2.71368e-06
10 *1239:A2 *1239:B 1.52651e-06
11 *1239:A2 *415:23 1.03816e-05
12 *319:10 *415:12 1.33095e-05
13 *319:10 *415:23 2.25787e-06
14 *405:22 *1239:B 2.6409e-06
15 *409:10 *415:23 6.30218e-06
16 *414:8 *415:12 1.31716e-05
17 *414:8 *415:23 1.63973e-05
*RES
1 *1236:Y *415:6 18.2696 
2 *415:6 *415:12 38.9053 
3 *415:12 *1237:B 17.2 
4 *415:6 *415:23 35.0796 
5 *415:23 *1239:B 39.2134 
*END

*D_NET *416 0.000245551
*CONN
*I *1988:A I *D BUFx3_ASAP7_75t_R
*I *1340:B I *D AND2x2_ASAP7_75t_R
*I *1325:B I *D AND2x2_ASAP7_75t_R
*I *1303:B I *D AND2x2_ASAP7_75t_R
*I *1237:Y O *D OAI21x1_ASAP7_75t_R
*CAP
1 *1988:A 5.25611e-06
2 *1340:B 2.75122e-06
3 *1325:B 1.27512e-05
4 *1303:B 0
5 *1237:Y 2.03373e-05
6 *416:27 2.39663e-05
7 *416:16 4.97008e-05
8 *416:10 6.68303e-05
9 *1325:B *465:8 0
10 *1325:B *770:31 1.44167e-06
11 *1325:B *771:8 1.1129e-05
12 *1340:B *1340:A 2.52755e-07
13 *416:10 *1023:12 1.89962e-06
14 *416:16 *1303:A 5.17782e-06
15 *416:16 *1589:A 1.04475e-06
16 *416:16 *1023:12 1.89962e-06
17 *416:27 *465:8 0
18 *416:27 *771:8 7.73618e-06
19 *130:14 *416:16 1.51001e-05
20 *318:8 *416:10 5.52807e-07
21 *319:10 *416:10 1.31716e-05
22 *320:10 *416:10 3.47607e-06
23 *320:18 *416:10 0
24 *415:23 *416:10 1.07573e-06
*RES
1 *1237:Y *416:10 48.9573 
2 *416:10 *416:16 47.77 
3 *416:16 *1303:B 17.2 
4 *416:16 *416:27 23.958 
5 *416:27 *1325:B 44.4803 
6 *416:27 *1340:B 35.4697 
7 *416:10 *1988:A 39.2134 
*END

*D_NET *417 0.000124525
*CONN
*I *1514:C I *D OR3x1_ASAP7_75t_R
*I *1241:A I *D NOR2x1_ASAP7_75t_R
*I *1238:Y O *D AND2x2_ASAP7_75t_R
*CAP
1 *1514:C 4.08306e-06
2 *1241:A 1.42786e-05
3 *1238:Y 0
4 *417:8 4.95268e-05
5 *417:6 3.11652e-05
6 *1241:A *419:20 1.039e-05
7 *1241:A *584:16 0
8 *1241:A *584:103 0
9 *1241:A *584:114 0
10 *1514:C *419:20 7.35354e-06
11 *417:8 *419:12 0
12 *417:8 *443:10 1.64348e-06
13 *417:8 *583:128 2.13555e-06
14 *417:8 *584:114 0
15 *417:8 *595:10 2.48464e-06
16 *417:8 *767:16 0
17 *417:8 *1087:40 1.46457e-06
18 *417:8 *1097:12 0
*RES
1 *1238:Y *417:6 34.4 
2 *417:6 *417:8 21.4003 
3 *417:8 *1241:A 45.0151 
4 *417:8 *1514:C 37.0741 
*END

*D_NET *418 0.000391624
*CONN
*I *1986:A I *D BUFx3_ASAP7_75t_R
*I *1341:B I *D AND2x2_ASAP7_75t_R
*I *1304:B I *D AND2x2_ASAP7_75t_R
*I *1326:B I *D AND2x2_ASAP7_75t_R
*I *1239:Y O *D OA21x2_ASAP7_75t_R
*CAP
1 *1986:A 4.93277e-06
2 *1341:B 0
3 *1304:B 2.426e-06
4 *1326:B 0
5 *1239:Y 0
6 *418:44 9.30812e-06
7 *418:29 3.60268e-05
8 *418:27 3.11018e-05
9 *418:14 8.30158e-05
10 *418:12 8.7565e-05
11 *418:8 4.60944e-05
12 *418:6 2.98034e-05
13 *1304:B *1304:A 1.66857e-06
14 *418:8 *1021:31 0
15 *418:8 *1023:12 0
16 *418:8 *1023:25 0
17 *418:12 *440:8 0
18 *418:12 *441:8 0
19 *418:14 *1326:A 1.40419e-08
20 *418:14 *441:19 5.85387e-06
21 *418:14 *480:10 4.15535e-06
22 *418:27 *473:8 1.12122e-05
23 *418:27 *480:10 4.74248e-06
24 *418:27 *773:10 1.5053e-05
25 *418:29 *1304:A 3.81627e-06
26 *418:29 *1327:A 3.65131e-06
27 *418:44 *465:8 0
28 *418:44 *770:39 1.31163e-06
29 *418:44 *771:8 8.28689e-06
30 *418:44 *773:6 1.58373e-06
31 *1710:A *418:14 0
*RES
1 *1239:Y *418:6 34.4 
2 *418:6 *418:8 21.4003 
3 *418:8 *418:12 25.0843 
4 *418:12 *418:14 32.0895 
5 *418:14 *1326:B 17.2 
6 *418:14 *418:27 43.4107 
7 *418:27 *418:29 10.1617 
8 *418:29 *1304:B 18.2696 
9 *418:29 *418:44 42.2276 
10 *418:44 *1341:B 17.2 
11 *418:8 *1986:A 37.0741 
*END

*D_NET *419 0.000127297
*CONN
*I *1241:B I *D NOR2x1_ASAP7_75t_R
*I *1514:B I *D OR3x1_ASAP7_75t_R
*I *1240:Y O *D AND2x2_ASAP7_75t_R
*CAP
1 *1241:B 0
2 *1514:B 0
3 *1240:Y 0
4 *419:20 9.54465e-06
5 *419:12 4.58458e-05
6 *419:6 3.63011e-05
7 *419:12 *583:128 0
8 *419:12 *583:141 1.23375e-05
9 *419:12 *595:18 3.88115e-06
10 *419:12 *813:12 0
11 *419:12 *1007:12 1.64348e-06
12 *1241:A *419:20 1.039e-05
13 *1514:C *419:20 7.35354e-06
14 *417:8 *419:12 0
*RES
1 *1240:Y *419:6 34.4 
2 *419:6 *419:12 44.4834 
3 *419:12 *419:20 44.4236 
4 *419:20 *1514:B 17.2 
5 *419:12 *1241:B 17.2 
*END

*D_NET *420 0.000130388
*CONN
*I *1997:A I *D BUFx3_ASAP7_75t_R
*I *1251:A I *D AND4x1_ASAP7_75t_R
*I *1244:Y O *D INVx1_ASAP7_75t_R
*CAP
1 *1997:A 0
2 *1251:A 0
3 *1244:Y 1.68346e-05
4 *420:14 2.10862e-05
5 *420:6 3.79208e-05
6 *420:6 *421:22 1.1455e-05
7 *420:6 *1032:8 1.45556e-05
8 *420:14 *427:6 1.36041e-05
9 *1244:A *420:6 1.49313e-05
*RES
1 *1244:Y *420:6 30.0358 
2 *420:6 *420:14 48.054 
3 *420:14 *1251:A 17.2 
4 *420:6 *1997:A 17.2 
*END

*D_NET *421 0.000288139
*CONN
*I *1248:B1 I *D OAI22x1_ASAP7_75t_R
*I *1256:A I *D INVx1_ASAP7_75t_R
*I *1245:Y O *D OR4x1_ASAP7_75t_R
*CAP
1 *1248:B1 0
2 *1256:A 5.38586e-06
3 *1245:Y 2.69671e-05
4 *421:35 1.38127e-05
5 *421:22 5.03303e-05
6 *421:20 6.48322e-05
7 *421:16 4.40451e-05
8 *421:10 3.73118e-05
9 *1256:A *1257:A 6.32346e-06
10 *421:10 *2031:A 3.82371e-06
11 *421:10 *426:18 0
12 *421:20 *1700:B 2.57849e-06
13 *421:20 *2031:A 1.0789e-05
14 *421:22 *1032:8 6.22522e-06
15 *1245:B *421:10 3.73144e-06
16 *273:21 *421:10 1.49407e-08
17 *274:27 *421:20 5.13209e-07
18 *420:6 *421:22 1.1455e-05
*RES
1 *1245:Y *421:10 47.9407 
2 *421:10 *421:16 38.1438 
3 *421:16 *421:20 40.853 
4 *421:20 *421:22 18.7189 
5 *421:22 *1256:A 20.9438 
6 *421:22 *421:35 43.4107 
7 *421:35 *1248:B1 17.2 
*END

*D_NET *422 4.4715e-05
*CONN
*I *1255:A1 I *D OA21x2_ASAP7_75t_R
*I *1247:C I *D OR3x1_ASAP7_75t_R
*I *1246:Y O *D OR2x2_ASAP7_75t_R
*CAP
1 *1255:A1 0
2 *1247:C 8.58347e-06
3 *1246:Y 6.47904e-06
4 *422:12 1.10475e-05
5 *422:8 8.94311e-06
6 *422:8 *429:20 5.97901e-06
7 *1247:B *1247:C 3.68287e-06
8 *84:10 *422:8 0
*RES
1 *1246:Y *422:8 40.0317 
2 *422:8 *422:12 18.8045 
3 *422:12 *1247:C 22.5483 
4 *422:12 *1255:A1 17.2 
*END

*D_NET *423 0.000238662
*CONN
*I *1257:B I *D NAND2x1_ASAP7_75t_R
*I *1248:B2 I *D OAI22x1_ASAP7_75t_R
*I *1247:Y O *D OR3x1_ASAP7_75t_R
*CAP
1 *1257:B 0
2 *1248:B2 0
3 *1247:Y 0
4 *423:20 1.4353e-05
5 *423:12 4.52208e-05
6 *423:10 7.12249e-05
7 *423:6 4.0357e-05
8 *423:12 *1257:A 2.75254e-05
9 *423:20 *1258:A2 9.75645e-06
10 *423:20 *424:10 9.66472e-07
11 *423:20 *427:18 6.49184e-07
12 *423:20 *434:8 6.19506e-06
13 *423:20 *434:25 2.21296e-05
14 *44:8 *423:10 0
15 *45:8 *423:10 2.83874e-07
*RES
1 *1247:Y *423:6 34.4 
2 *423:6 *423:10 48.1741 
3 *423:10 *423:12 18.7189 
4 *423:12 *423:20 46.0281 
5 *423:20 *1248:B2 17.2 
6 *423:12 *1257:B 17.2 
*END

*D_NET *424 6.17711e-05
*CONN
*I *1258:A1 I *D OAI22x1_ASAP7_75t_R
*I *1248:Y O *D OAI22x1_ASAP7_75t_R
*CAP
1 *1258:A1 0
2 *1248:Y 2.03391e-05
3 *424:10 2.03391e-05
4 *424:10 *1258:A2 1.82663e-05
5 *424:10 *433:10 1.86013e-06
6 *423:20 *424:10 9.66472e-07
*RES
1 *1248:Y *424:10 44.1686 
2 *424:10 *1258:A1 34.4 
*END

*D_NET *425 8.73536e-05
*CONN
*I *1250:A2 I *D AO21x1_ASAP7_75t_R
*I *1249:Y O *D OR2x2_ASAP7_75t_R
*CAP
1 *1250:A2 1.84857e-06
2 *1249:Y 1.02231e-05
3 *425:18 1.63133e-05
4 *425:10 2.46879e-05
5 *1250:A2 *426:10 2.90209e-08
6 *1249:A *425:10 3.75158e-06
7 *1249:A *425:18 2.81851e-06
8 *17:6 *1250:A2 3.89037e-06
9 *17:6 *425:18 1.84236e-05
10 *20:12 *425:10 4.64613e-06
11 *275:8 *425:18 7.21451e-07
*RES
1 *1249:Y *425:10 40.4531 
2 *425:10 *425:18 42.0293 
3 *425:18 *1250:A2 35.4697 
*END

*D_NET *426 0.000116135
*CONN
*I *1251:D I *D AND4x1_ASAP7_75t_R
*I *1250:Y O *D AO21x1_ASAP7_75t_R
*CAP
1 *1251:D 2.32111e-06
2 *1250:Y 1.6953e-05
3 *426:18 3.37272e-05
4 *426:10 4.83591e-05
5 *1251:D *427:6 1.61096e-06
6 *1245:B *426:18 3.15342e-06
7 *1249:A *426:10 3.38221e-06
8 *1250:A2 *426:10 2.90209e-08
9 *17:6 *426:10 1.18174e-06
10 *18:27 *426:10 2.03526e-06
11 *141:8 *426:10 3.38221e-06
12 *421:10 *426:18 0
*RES
1 *1250:Y *426:10 43.1272 
2 *426:10 *426:18 46.871 
3 *426:18 *1251:D 35.4697 
*END

*D_NET *427 0.00022437
*CONN
*I *1258:A2 I *D OAI22x1_ASAP7_75t_R
*I *1251:Y O *D AND4x1_ASAP7_75t_R
*CAP
1 *1258:A2 5.24727e-06
2 *1251:Y 2.6289e-05
3 *427:18 4.5587e-05
4 *427:12 4.33843e-05
5 *427:6 2.93335e-05
6 *427:18 *434:14 8.35336e-06
7 *427:18 *434:25 7.86436e-06
8 *1251:D *427:6 1.61096e-06
9 *17:6 *427:6 9.425e-06
10 *274:10 *427:12 3.38822e-06
11 *274:27 *427:6 1.61096e-06
12 *420:14 *427:6 1.36041e-05
13 *423:20 *1258:A2 9.75645e-06
14 *423:20 *427:18 6.49184e-07
15 *424:10 *1258:A2 1.82663e-05
*RES
1 *1251:Y *427:6 35.384 
2 *427:6 *427:12 37.2158 
3 *427:12 *427:18 36.7088 
4 *427:18 *1258:A2 39.2134 
*END

*D_NET *428 1.96248e-05
*CONN
*I *1253:A2 I *D OA21x2_ASAP7_75t_R
*I *1252:Y O *D INVx1_ASAP7_75t_R
*CAP
1 *1253:A2 8.49197e-06
2 *1252:Y 8.49197e-06
3 *1253:A1 *1253:A2 2.6409e-06
*RES
1 *1252:Y *1253:A2 39.7482 
*END

*D_NET *429 0.00016421
*CONN
*I *1255:A2 I *D OA21x2_ASAP7_75t_R
*I *1253:Y O *D OA21x2_ASAP7_75t_R
*CAP
1 *1255:A2 0
2 *1253:Y 6.99707e-06
3 *429:20 5.96646e-06
4 *429:14 2.22398e-05
5 *429:8 2.32704e-05
6 *429:8 *2039:A 7.63254e-07
7 *429:14 *1671:B 0
8 *429:20 *430:10 5.97901e-06
9 *429:20 *1019:8 0
10 *1246:A *429:14 2.31575e-05
11 *1246:B *429:14 2.29378e-05
12 *84:10 *429:14 4.57907e-05
13 *84:10 *429:20 0
14 *174:20 *429:14 1.12894e-06
15 *175:10 *429:14 0
16 *176:18 *429:14 0
17 *422:8 *429:20 5.97901e-06
*RES
1 *1253:Y *429:8 37.0741 
2 *429:8 *429:14 39.3582 
3 *429:14 *429:20 41.158 
4 *429:20 *1255:A2 17.2 
*END

*D_NET *430 7.39421e-05
*CONN
*I *1255:B I *D OA21x2_ASAP7_75t_R
*I *1254:Y O *D OA21x2_ASAP7_75t_R
*CAP
1 *1255:B 0
2 *1254:Y 2.06466e-05
3 *430:10 2.06466e-05
4 *430:10 *431:12 2.68933e-07
5 *430:10 *1019:8 0
6 *15:12 *430:10 2.6401e-05
7 *429:20 *430:10 5.97901e-06
*RES
1 *1254:Y *430:10 48.054 
2 *430:10 *1255:B 34.4 
*END

*D_NET *431 9.28144e-05
*CONN
*I *1258:B1 I *D OAI22x1_ASAP7_75t_R
*I *1255:Y O *D OA21x2_ASAP7_75t_R
*CAP
1 *1258:B1 0
2 *1255:Y 0
3 *431:12 3.50872e-05
4 *431:6 3.50872e-05
5 *431:12 *1258:B2 2.47522e-06
6 *431:12 *1019:8 1.98958e-05
7 *430:10 *431:12 2.68933e-07
*RES
1 *1255:Y *431:6 34.4 
2 *431:6 *431:12 45.7231 
3 *431:12 *1258:B1 17.2 
*END

*D_NET *432 8.44151e-05
*CONN
*I *1257:A I *D NAND2x1_ASAP7_75t_R
*I *1256:Y O *D INVx1_ASAP7_75t_R
*CAP
1 *1257:A 1.80053e-05
2 *1256:Y 1.80053e-05
3 *1257:A *433:10 1.45556e-05
4 *1256:A *1257:A 6.32346e-06
5 *423:12 *1257:A 2.75254e-05
*RES
1 *1256:Y *1257:A 47.7706 
*END

*D_NET *433 5.61787e-05
*CONN
*I *1258:B2 I *D OAI22x1_ASAP7_75t_R
*I *1257:Y O *D NAND2x1_ASAP7_75t_R
*CAP
1 *1258:B2 4.88397e-06
2 *1257:Y 1.37599e-05
3 *433:10 1.86439e-05
4 *1257:A *433:10 1.45556e-05
5 *424:10 *433:10 1.86013e-06
6 *431:12 *1258:B2 2.47522e-06
*RES
1 *1257:Y *433:10 42.6491 
2 *433:10 *1258:B2 37.0741 
*END

*D_NET *434 0.000191356
*CONN
*I *1983:A I *D BUFx6f_ASAP7_75t_R
*I *1984:A I *D BUFx3_ASAP7_75t_R
*I *1258:Y O *D OAI22x1_ASAP7_75t_R
*CAP
1 *1983:A 0
2 *1984:A 0
3 *1258:Y 2.2222e-06
4 *434:25 4.30463e-05
5 *434:14 2.81382e-05
6 *434:8 7.34068e-05
7 *423:20 *434:8 6.19506e-06
8 *423:20 *434:25 2.21296e-05
9 *427:18 *434:14 8.35336e-06
10 *427:18 *434:25 7.86436e-06
*RES
1 *1258:Y *434:8 36.0045 
2 *434:8 *434:14 33.05 
3 *434:14 *1984:A 17.2 
4 *434:8 *434:25 43.102 
5 *434:25 *1983:A 17.2 
*END

*D_NET *436 3.07469e-05
*CONN
*I *1261:B I *D OA21x2_ASAP7_75t_R
*I *1260:Y O *D NAND2x1_ASAP7_75t_R
*CAP
1 *1261:B 0
2 *1260:Y 1.23236e-05
3 *436:10 1.23236e-05
4 *436:10 *1260:A 7.58265e-07
5 *436:10 *1018:16 5.08156e-06
6 *287:8 *436:10 2.59962e-07
*RES
1 *1260:Y *436:10 43.8888 
2 *436:10 *1261:B 34.4 
*END

*D_NET *437 0.000145735
*CONN
*I *1265:A I *D NOR2x1_ASAP7_75t_R
*I *1556:C I *D OR3x1_ASAP7_75t_R
*I *1263:Y O *D AND2x2_ASAP7_75t_R
*CAP
1 *1265:A 6.76899e-06
2 *1556:C 1.0132e-05
3 *1263:Y 1.10537e-05
4 *437:10 3.37761e-05
5 *437:8 2.79288e-05
6 *1265:A *1265:B 2.34603e-06
7 *1556:C *1265:B 5.01142e-06
8 *1556:C *1946:A 0
9 *1556:C *634:10 5.19552e-07
10 *437:8 *1263:A 6.84356e-06
11 *437:10 *1265:B 3.16603e-06
12 *437:10 *1946:A 0
13 *437:10 *438:10 1.60673e-05
14 *1263:B *437:8 7.78356e-06
15 *376:12 *437:8 1.43377e-05
*RES
1 *1263:Y *437:8 43.492 
2 *437:8 *437:10 15.2055 
3 *437:10 *1556:C 40.9029 
4 *437:10 *1265:A 37.0741 
*END

*D_NET *438 0.000263288
*CONN
*I *1556:A I *D OR3x1_ASAP7_75t_R
*I *1265:B I *D NOR2x1_ASAP7_75t_R
*I *1264:Y O *D AND2x2_ASAP7_75t_R
*CAP
1 *1556:A 0
2 *1265:B 2.21571e-05
3 *1264:Y 6.97246e-06
4 *438:29 1.92367e-05
5 *438:10 6.82115e-05
6 *438:8 3.37902e-05
7 *1265:B *1946:A 0
8 *1265:B *631:47 2.43887e-07
9 *1265:B *634:10 7.63254e-07
10 *438:8 *789:14 7.35612e-06
11 *438:10 *789:14 8.33296e-06
12 *438:10 *798:18 2.34636e-05
13 *1264:B *438:10 1.53144e-05
14 *1265:A *1265:B 2.34603e-06
15 *1556:C *1265:B 5.01142e-06
16 *40:6 *438:8 2.60455e-05
17 *354:55 *438:10 4.80936e-06
18 *376:8 *438:10 0
19 *437:10 *1265:B 3.16603e-06
20 *437:10 *438:10 1.60673e-05
*RES
1 *1264:Y *438:8 41.3527 
2 *438:8 *438:10 30.411 
3 *438:10 *1265:B 49.1804 
4 *438:10 *438:29 44.7884 
5 *438:29 *1556:A 34.4 
*END

*D_NET *439 0.000106233
*CONN
*I *1268:B I *D AO21x1_ASAP7_75t_R
*I *1267:Y O *D OA211x2_ASAP7_75t_R
*CAP
1 *1268:B 1.92776e-05
2 *1267:Y 3.08153e-05
3 *439:8 5.00929e-05
4 *1268:B *785:14 0
5 *1268:B *1075:12 0
6 *439:8 *1188:A 0
7 *439:8 *792:16 5.41446e-06
8 *439:8 *1075:12 0
9 *36:8 *1268:B 6.33206e-07
*RES
1 *1267:Y *439:8 47.7706 
2 *439:8 *1268:B 48.3941 
*END

*D_NET *440 0.00019386
*CONN
*I *1272:A I *D NOR2x1_ASAP7_75t_R
*I *1597:C I *D OR3x1_ASAP7_75t_R
*I *1270:Y O *D AND2x2_ASAP7_75t_R
*CAP
1 *1272:A 0
2 *1597:C 4.02136e-06
3 *1270:Y 1.73991e-05
4 *440:10 4.40663e-05
5 *440:8 5.7444e-05
6 *1597:C *1597:B 3.68287e-06
7 *1597:C *584:83 2.28976e-06
8 *440:8 *1271:B 3.95845e-06
9 *440:8 *441:8 5.67735e-06
10 *440:10 *441:8 7.84037e-07
11 *440:10 *441:21 1.99508e-05
12 *440:10 *584:83 7.35192e-06
13 *185:10 *440:10 4.4545e-06
14 *185:31 *440:10 6.34091e-06
15 *190:8 *1597:C 1.64387e-05
16 *322:29 *440:10 0
17 *418:12 *440:8 0
*RES
1 *1270:Y *440:8 47.3528 
2 *440:8 *440:10 35.4795 
3 *440:10 *1597:C 39.2134 
4 *440:8 *1272:A 34.4 
*END

*D_NET *441 0.00016287
*CONN
*I *1597:B I *D OR3x1_ASAP7_75t_R
*I *1272:B I *D NOR2x1_ASAP7_75t_R
*I *1271:Y O *D AND2x2_ASAP7_75t_R
*CAP
1 *1597:B 1.32378e-06
2 *1272:B 0
3 *1271:Y 5.0491e-06
4 *441:21 3.88064e-05
5 *441:19 3.97992e-05
6 *441:10 2.31651e-06
7 *441:8 5.0491e-06
8 *441:21 *584:83 5.37866e-07
9 *1597:C *1597:B 3.68287e-06
10 *185:53 *441:21 1.53058e-05
11 *190:14 *441:21 5.58366e-06
12 *191:10 *441:21 1.31492e-05
13 *418:12 *441:8 0
14 *418:14 *441:19 5.85387e-06
15 *440:8 *441:8 5.67735e-06
16 *440:10 *441:8 7.84037e-07
17 *440:10 *441:21 1.99508e-05
*RES
1 *1271:Y *441:8 38.9053 
2 *441:8 *441:10 17.2 
3 *441:10 *1272:B 17.2 
4 *441:10 *441:19 18.8045 
5 *441:19 *441:21 36.6058 
6 *441:21 *1597:B 35.4697 
*END

*D_NET *442 0.000118724
*CONN
*I *1512:C I *D OR3x1_ASAP7_75t_R
*I *1275:A I *D NOR2x1_ASAP7_75t_R
*I *1273:Y O *D AND2x2_ASAP7_75t_R
*CAP
1 *1512:C 1.18478e-05
2 *1275:A 8.35228e-06
3 *1273:Y 1.76292e-05
4 *442:10 2.02001e-05
5 *442:8 1.76292e-05
6 *1275:A *1275:B 8.65792e-06
7 *1512:C *1275:B 2.44619e-05
8 *442:8 *443:10 0
9 *442:8 *767:16 0
10 *442:8 *815:8 0
11 *442:8 *969:8 9.94583e-06
*RES
1 *1273:Y *442:8 47.3528 
2 *442:8 *442:10 17.2 
3 *442:10 *1275:A 23.0831 
4 *442:10 *1512:C 26.8269 
*END

*D_NET *443 0.00010979
*CONN
*I *1512:B I *D OR3x1_ASAP7_75t_R
*I *1275:B I *D NOR2x1_ASAP7_75t_R
*I *1274:Y O *D AND2x2_ASAP7_75t_R
*CAP
1 *1512:B 0
2 *1275:B 1.0789e-05
3 *1274:Y 1.74651e-05
4 *443:12 1.0789e-05
5 *443:10 1.74651e-05
6 *1275:B *1512:A 1.36155e-06
7 *443:10 *1240:B 9.08513e-06
8 *443:10 *767:16 8.07162e-06
9 *1275:A *1275:B 8.65792e-06
10 *1512:C *1275:B 2.44619e-05
11 *417:8 *443:10 1.64348e-06
12 *442:8 *443:10 0
*RES
1 *1274:Y *443:10 47.2111 
2 *443:10 *443:12 17.2 
3 *443:12 *1275:B 27.3617 
4 *443:12 *1512:B 17.2 
*END

*D_NET *444 0.000147985
*CONN
*I *1281:A1 I *D OAI21x1_ASAP7_75t_R
*I *1284:C I *D OR4x1_ASAP7_75t_R
*I *1277:Y O *D OR2x2_ASAP7_75t_R
*CAP
1 *1281:A1 0
2 *1284:C 0
3 *1277:Y 0
4 *444:31 2.21405e-06
5 *444:25 2.41706e-05
6 *444:10 2.9723e-05
7 *444:4 5.16795e-05
8 *444:25 *1281:B 0
9 *444:25 *684:20 1.00054e-05
10 *444:31 *1281:A2 2.24968e-06
11 *444:31 *1052:10 8.20723e-06
12 *1277:B *444:10 0
13 *1651:A *444:10 7.761e-06
14 *119:21 *444:10 2.81851e-06
15 *119:21 *444:25 5.60551e-07
16 *160:10 *444:10 8.59498e-06
*RES
1 *1277:Y *444:4 17.2 
2 *444:4 *444:10 37.2189 
3 *444:10 *1284:C 34.4 
4 *444:4 *444:25 46.3645 
5 *444:25 *444:31 37.2158 
6 *444:31 *1281:A1 17.2 
*END

*D_NET *445 5.85502e-05
*CONN
*I *1279:A2 I *D OA21x2_ASAP7_75t_R
*I *1278:Y O *D INVx1_ASAP7_75t_R
*CAP
1 *1279:A2 0
2 *1278:Y 1.5291e-05
3 *445:10 1.5291e-05
4 *445:10 *1052:8 5.41446e-06
5 *445:10 *1052:10 2.03489e-05
6 *1278:A *445:10 2.20493e-06
7 *160:10 *445:10 0
*RES
1 *1278:Y *445:10 46.5062 
2 *445:10 *1279:A2 34.4 
*END

*D_NET *446 5.91189e-05
*CONN
*I *1281:A2 I *D OAI21x1_ASAP7_75t_R
*I *1279:Y O *D OA21x2_ASAP7_75t_R
*CAP
1 *1281:A2 1.47922e-05
2 *1279:Y 7.40668e-06
3 *446:8 2.21989e-05
4 *1281:A2 *1052:10 3.05074e-06
5 *120:8 *1281:A2 9.42079e-06
6 *444:31 *1281:A2 2.24968e-06
*RES
1 *1279:Y *446:8 37.0741 
2 *446:8 *1281:A2 48.4791 
*END

*D_NET *447 9.14609e-05
*CONN
*I *1281:B I *D OAI21x1_ASAP7_75t_R
*I *1280:Y O *D OA21x2_ASAP7_75t_R
*CAP
1 *1281:B 1.13374e-05
2 *1280:Y 1.47213e-05
3 *447:8 2.60586e-05
4 *1281:B *684:33 2.73708e-06
5 *1281:B *1052:10 3.66066e-05
6 *152:8 *1281:B 0
7 *444:25 *1281:B 0
*RES
1 *1280:Y *447:8 40.2831 
2 *447:8 *1281:B 46.7897 
*END

*D_NET *448 0.000144235
*CONN
*I *1292:A1 I *D AO21x2_ASAP7_75t_R
*I *1281:Y O *D OAI21x1_ASAP7_75t_R
*CAP
1 *1292:A1 0
2 *1281:Y 5.31615e-06
3 *448:12 4.19262e-05
4 *448:8 4.72424e-05
5 *448:8 *1052:10 5.2059e-06
6 *448:12 *1292:A2 6.02341e-06
7 *448:12 *1292:B 4.33571e-06
8 *448:12 *1308:A 4.38714e-06
9 *448:12 *459:10 1.06652e-05
10 *448:12 *684:20 8.15645e-06
11 *119:8 *448:12 1.00854e-05
12 *121:10 *448:12 8.9147e-07
*RES
1 *1281:Y *448:8 38.9053 
2 *448:8 *448:12 42.3368 
3 *448:12 *1292:A1 17.2 
*END

*D_NET *449 0.000199935
*CONN
*I *1284:D I *D OR4x1_ASAP7_75t_R
*I *1283:A I *D INVx1_ASAP7_75t_R
*I *1282:Y O *D OR4x1_ASAP7_75t_R
*CAP
1 *1284:D 3.0519e-06
2 *1283:A 0
3 *1282:Y 2.64639e-05
4 *449:23 4.92036e-05
5 *449:12 5.09468e-05
6 *449:6 3.1259e-05
7 *449:12 *450:8 1.09842e-06
8 *449:12 *457:12 0
9 *449:23 *1665:B 2.79435e-06
10 *1282:A *449:6 6.86929e-06
11 *1282:B *449:6 8.87763e-06
12 *1282:D *449:6 1.21211e-05
13 *2017:A *449:23 5.62196e-06
14 *139:12 *449:6 1.59615e-06
15 *160:10 *449:23 3.05118e-08
*RES
1 *1282:Y *449:6 36.9885 
2 *449:6 *449:12 38.3422 
3 *449:12 *1283:A 17.2 
4 *449:12 *449:23 38.2282 
5 *449:23 *1284:D 35.4697 
*END

*D_NET *450 1.73416e-05
*CONN
*I *1285:A I *D AND2x2_ASAP7_75t_R
*I *1283:Y O *D INVx1_ASAP7_75t_R
*CAP
1 *1285:A 0
2 *1283:Y 7.27594e-06
3 *450:8 7.27594e-06
4 *450:8 *457:12 0
5 *450:8 *458:10 1.69134e-06
6 *449:12 *450:8 1.09842e-06
*RES
1 *1283:Y *450:8 40.0317 
2 *450:8 *1285:A 34.4 
*END

*D_NET *451 0.000131779
*CONN
*I *1285:B I *D AND2x2_ASAP7_75t_R
*I *1291:C I *D OA211x2_ASAP7_75t_R
*I *1284:Y O *D OR4x1_ASAP7_75t_R
*CAP
1 *1285:B 0
2 *1291:C 0
3 *1284:Y 4.25675e-05
4 *451:14 2.14332e-05
5 *451:6 6.40007e-05
6 *451:6 *458:10 0
7 *451:14 *458:10 0
8 *139:12 *451:14 3.77777e-06
*RES
1 *1284:Y *451:6 32.7099 
2 *451:6 *451:14 44.1686 
3 *451:14 *1291:C 17.2 
4 *451:6 *1285:B 17.2 
*END

*D_NET *452 3.73807e-05
*CONN
*I *1292:A2 I *D AO21x2_ASAP7_75t_R
*I *1285:Y O *D AND2x2_ASAP7_75t_R
*CAP
1 *1292:A2 1.64394e-06
2 *1285:Y 1.26771e-05
3 *452:8 1.43211e-05
4 *1292:A2 *1292:B 2.30405e-06
5 *452:8 *458:10 4.11025e-07
6 *448:12 *1292:A2 6.02341e-06
*RES
1 *1285:Y *452:8 42.2843 
2 *452:8 *1292:A2 36.0045 
*END

*D_NET *453 7.33331e-05
*CONN
*I *1290:A I *D NAND2x1_ASAP7_75t_R
*I *1287:A I *D OR2x2_ASAP7_75t_R
*I *1286:Y O *D INVx1_ASAP7_75t_R
*CAP
1 *1290:A 2.98329e-05
2 *1287:A 0
3 *1286:Y 0
4 *453:10 6.83364e-06
5 *453:4 3.66665e-05
6 *453:10 *1020:8 0
7 *313:10 *453:10 0
*RES
1 *1286:Y *453:4 17.2 
2 *453:4 *453:10 38.9053 
3 *453:10 *1287:A 17.2 
4 *453:4 *1290:A 29.501 
*END

*D_NET *454 0.000106309
*CONN
*I *1291:A1 I *D OA211x2_ASAP7_75t_R
*I *1287:Y O *D OR2x2_ASAP7_75t_R
*CAP
1 *1291:A1 1.64938e-05
2 *1287:Y 1.31344e-05
3 *454:8 2.96282e-05
4 *1291:A1 *457:12 4.41374e-06
5 *1291:A1 *1103:10 0
6 *454:8 *1287:B 9.75735e-06
7 *1282:B *1291:A1 1.2638e-05
8 *139:12 *1291:A1 2.02434e-05
*RES
1 *1287:Y *454:8 41.3527 
2 *454:8 *1291:A1 49.6055 
*END

*D_NET *455 3.3607e-05
*CONN
*I *1289:A2 I *D OAI21x1_ASAP7_75t_R
*I *1288:Y O *D OA21x2_ASAP7_75t_R
*CAP
1 *1289:A2 1.32952e-05
2 *1288:Y 1.32952e-05
3 *1289:A2 *456:10 4.18905e-06
4 *1289:B *1289:A2 2.8275e-06
*RES
1 *1288:Y *1289:A2 42.4224 
*END

*D_NET *456 3.10917e-05
*CONN
*I *1291:A2 I *D OA211x2_ASAP7_75t_R
*I *1289:Y O *D OAI21x1_ASAP7_75t_R
*CAP
1 *1291:A2 0
2 *1289:Y 1.27149e-05
3 *456:10 1.27149e-05
4 *456:10 *1103:10 7.36391e-07
5 *1289:A2 *456:10 4.18905e-06
6 *139:12 *456:10 7.36391e-07
*RES
1 *1289:Y *456:10 41.5795 
2 *456:10 *1291:A2 34.4 
*END

*D_NET *457 7.92224e-05
*CONN
*I *1291:B I *D OA211x2_ASAP7_75t_R
*I *1290:Y O *D NAND2x1_ASAP7_75t_R
*CAP
1 *1291:B 0
2 *1290:Y 0
3 *457:12 3.14315e-05
4 *457:6 3.14315e-05
5 *457:12 *1665:B 0
6 *457:12 *2026:A 0
7 *457:12 *458:10 0
8 *457:12 *1109:17 4.42421e-06
9 *1282:B *457:12 8.06799e-07
10 *1291:A1 *457:12 4.41374e-06
11 *139:12 *457:12 5.62403e-06
12 *313:10 *457:12 1.09067e-06
13 *449:12 *457:12 0
14 *450:8 *457:12 0
*RES
1 *1290:Y *457:6 34.4 
2 *457:6 *457:12 40.7396 
3 *457:12 *1291:B 17.2 
*END

*D_NET *458 9.82785e-05
*CONN
*I *1292:B I *D AO21x2_ASAP7_75t_R
*I *1291:Y O *D OA211x2_ASAP7_75t_R
*CAP
1 *1292:B 8.49623e-06
2 *1291:Y 2.22185e-05
3 *458:10 3.07147e-05
4 *1292:B *1308:A 2.48227e-05
5 *458:10 *802:20 3.2842e-06
6 *1292:A2 *1292:B 2.30405e-06
7 *139:12 *458:10 0
8 *448:12 *1292:B 4.33571e-06
9 *450:8 *458:10 1.69134e-06
10 *451:6 *458:10 0
11 *451:14 *458:10 0
12 *452:8 *458:10 4.11025e-07
13 *457:12 *458:10 0
*RES
1 *1291:Y *458:10 48.2808 
2 *458:10 *1292:B 41.8876 
*END

*D_NET *459 0.000603575
*CONN
*I *1498:A2 I *D AO21x2_ASAP7_75t_R
*I *1493:B I *D NOR2x2_ASAP7_75t_R
*I *1494:A1 I *D AO21x2_ASAP7_75t_R
*I *1982:A I *D BUFx6f_ASAP7_75t_R
*I *1497:B I *D NOR2x1_ASAP7_75t_R
*I *1476:A2 I *D AO21x2_ASAP7_75t_R
*I *1475:A I *D NOR2x1_ASAP7_75t_R
*I *1292:Y O *D AO21x2_ASAP7_75t_R
*CAP
1 *1498:A2 1.56568e-05
2 *1493:B 0
3 *1494:A1 0
4 *1982:A 7.83048e-06
5 *1497:B 0
6 *1476:A2 4.13563e-06
7 *1475:A 0
8 *1292:Y 1.66435e-05
9 *459:72 2.12459e-05
10 *459:66 3.71157e-05
11 *459:62 3.37467e-05
12 *459:51 4.28828e-05
13 *459:40 3.50523e-05
14 *459:38 1.16855e-05
15 *459:27 2.4656e-05
16 *459:18 1.70437e-05
17 *459:14 3.95706e-05
18 *459:10 5.02255e-05
19 *1476:A2 *690:25 2.03526e-06
20 *1498:A2 *588:8 5.52264e-06
21 *1498:A2 *687:37 3.3563e-06
22 *1498:A2 *1103:10 0
23 *1982:A *1017:12 5.17782e-06
24 *1982:A *1017:14 3.56648e-06
25 *459:14 *684:12 0.000115037
26 *459:18 *690:25 9.7398e-06
27 *459:18 *1045:8 5.15209e-07
28 *459:18 *1051:14 6.33206e-07
29 *459:27 *690:25 3.35463e-05
30 *459:27 *1051:14 1.45865e-05
31 *459:27 *1103:10 0
32 *459:38 *687:37 1.67815e-06
33 *459:38 *1051:14 3.04795e-06
34 *459:38 *1103:10 0
35 *459:51 *1502:A1 2.20493e-06
36 *459:51 *1595:A 2.45028e-06
37 *459:51 *1017:22 8.33296e-06
38 *459:51 *1017:38 1.00883e-05
39 *459:62 *687:37 5.49212e-07
40 *459:72 *1493:A 5.25794e-06
41 *459:72 *688:23 4.45472e-06
42 *459:72 *1114:12 1.09842e-06
43 *150:10 *459:10 1.90588e-06
44 *322:29 *1498:A2 6.33206e-07
45 *448:12 *459:10 1.06652e-05
*RES
1 *1292:Y *459:10 44.8646 
2 *459:10 *459:14 36.463 
3 *459:14 *459:18 21.7992 
4 *459:18 *1475:A 34.4 
5 *459:18 *459:27 13.516 
6 *459:27 *1476:A2 36.5393 
7 *459:27 *459:38 6.75799 
8 *459:38 *459:40 17.2 
9 *459:40 *1497:B 17.2 
10 *459:40 *459:51 41.7773 
11 *459:51 *1982:A 40.2831 
12 *459:38 *459:62 1.6895 
13 *459:62 *459:66 26.292 
14 *459:66 *459:72 33.05 
15 *459:72 *1494:A1 34.4 
16 *459:66 *1493:B 17.2 
17 *459:62 *1498:A2 46.6763 
*END

*D_NET *462 3.65246e-05
*CONN
*I *1297:B I *D AO21x2_ASAP7_75t_R
*I *1296:Y O *D NOR2x1_ASAP7_75t_R
*CAP
1 *1297:B 5.50524e-06
2 *1296:Y 9.99381e-06
3 *462:10 1.5499e-05
4 *462:10 *1099:8 5.52652e-06
*RES
1 *1296:Y *462:10 40.5098 
2 *462:10 *1297:B 37.0741 
*END

*D_NET *463 6.27262e-05
*CONN
*I *1609:C I *D OR3x1_ASAP7_75t_R
*I *1301:A I *D NOR2x1_ASAP7_75t_R
*I *1299:Y O *D AND2x2_ASAP7_75t_R
*CAP
1 *1609:C 1.28767e-05
2 *1301:A 8.91402e-06
3 *1299:Y 6.45025e-06
4 *463:8 2.8241e-05
5 *1301:A *464:8 0
6 *1301:A *464:20 5.67735e-06
7 *1301:A *631:102 5.37866e-07
8 *1609:C *464:20 2.90209e-08
9 *463:8 *464:8 0
*RES
1 *1299:Y *463:8 38.9053 
2 *463:8 *1301:A 42.2843 
3 *463:8 *1609:C 40.8179 
*END

*D_NET *464 8.37996e-05
*CONN
*I *1301:B I *D NOR2x1_ASAP7_75t_R
*I *1609:A I *D OR3x1_ASAP7_75t_R
*I *1300:Y O *D AND2x2_ASAP7_75t_R
*CAP
1 *1301:B 0
2 *1609:A 0
3 *1300:Y 1.42804e-05
4 *464:20 7.99301e-06
5 *464:12 2.08034e-05
6 *464:8 2.70908e-05
7 *464:8 *628:77 6.49127e-06
8 *464:8 *631:102 3.58577e-07
9 *464:8 *830:10 0
10 *464:8 *1005:12 1.07573e-06
11 *1301:A *464:8 0
12 *1301:A *464:20 5.67735e-06
13 *1609:C *464:20 2.90209e-08
14 *463:8 *464:8 0
*RES
1 *1300:Y *464:8 47.3528 
2 *464:8 *464:12 24.1527 
3 *464:12 *464:20 41.1013 
4 *464:20 *1609:A 17.2 
5 *464:12 *1301:B 17.2 
*END

*D_NET *465 0.000202541
*CONN
*I *1305:A I *D NOR2x1_ASAP7_75t_R
*I *1495:C I *D OR3x1_ASAP7_75t_R
*I *1303:Y O *D AND2x2_ASAP7_75t_R
*CAP
1 *1305:A 8.22137e-06
2 *1495:C 2.24208e-06
3 *1303:Y 0
4 *465:10 1.04634e-05
5 *465:8 4.10785e-05
6 *465:6 4.10785e-05
7 *1305:A *1495:B 5.68657e-06
8 *1495:C *1495:B 2.28976e-06
9 *465:8 *1495:A 2.45021e-07
10 *465:8 *479:8 8.95381e-05
11 *465:8 *770:31 0
12 *465:8 *770:39 1.12894e-06
13 *465:8 *771:8 0
14 *465:8 *773:10 0
15 *465:8 *781:22 3.05118e-08
16 *465:8 *936:25 5.37866e-07
17 *1325:B *465:8 0
18 *416:27 *465:8 0
19 *418:44 *465:8 0
*RES
1 *1303:Y *465:6 34.4 
2 *465:6 *465:8 38.2953 
3 *465:8 *465:10 17.2 
4 *465:10 *1495:C 18.8045 
5 *465:10 *1305:A 22.0134 
*END

*D_NET *466 9.07905e-05
*CONN
*I *1305:B I *D NOR2x1_ASAP7_75t_R
*I *1495:B I *D OR3x1_ASAP7_75t_R
*I *1304:Y O *D AND2x2_ASAP7_75t_R
*CAP
1 *1305:B 0
2 *1495:B 1.5889e-05
3 *1304:Y 1.61181e-05
4 *466:10 3.20071e-05
5 *1495:B *474:12 0
6 *1495:B *480:18 3.47607e-06
7 *1495:B *587:8 5.94108e-06
8 *466:10 *1327:A 1.07377e-06
9 *466:10 *474:12 0
10 *466:10 *480:16 3.56648e-06
11 *466:10 *480:18 4.74248e-06
12 *1305:A *1495:B 5.68657e-06
13 *1495:C *1495:B 2.28976e-06
*RES
1 *1304:Y *466:10 43.7188 
2 *466:10 *1495:B 46.8427 
3 *466:10 *1305:B 34.4 
*END

*D_NET *467 5.15919e-05
*CONN
*I *1307:B I *D OA21x2_ASAP7_75t_R
*I *1306:Y O *D NAND2x1_ASAP7_75t_R
*CAP
1 *1307:B 0
2 *1306:Y 1.32119e-05
3 *467:8 1.32119e-05
4 *467:8 *1019:48 1.22048e-05
5 *467:8 *1019:67 1.12851e-05
6 *467:8 *1104:8 1.67815e-06
7 *44:8 *467:8 0
8 *263:10 *467:8 0
*RES
1 *1306:Y *467:8 46.7897 
2 *467:8 *1307:B 34.4 
*END

*D_NET *468 7.04103e-05
*CONN
*I *1313:A I *D NOR2x1_ASAP7_75t_R
*I *1569:C I *D OR3x1_ASAP7_75t_R
*I *1311:Y O *D AND2x2_ASAP7_75t_R
*CAP
1 *1313:A 0
2 *1569:C 0
3 *1311:Y 1.1173e-05
4 *468:19 1.475e-05
5 *468:6 2.59229e-05
6 *468:6 *469:14 5.62196e-06
7 *468:6 *631:151 1.59615e-06
8 *468:19 *469:25 1.13463e-05
9 *468:19 *631:151 0
*RES
1 *1311:Y *468:6 24.1527 
2 *468:6 *1569:C 17.2 
3 *468:6 *468:19 46.0848 
4 *468:19 *1313:A 17.2 
*END

*D_NET *469 0.000122293
*CONN
*I *1313:B I *D NOR2x1_ASAP7_75t_R
*I *1569:A I *D OR3x1_ASAP7_75t_R
*I *1312:Y O *D AND2x2_ASAP7_75t_R
*CAP
1 *1313:B 0
2 *1569:A 0
3 *1312:Y 3.73918e-06
4 *469:25 3.1661e-05
5 *469:14 9.40448e-06
6 *469:6 4.48046e-05
7 *469:14 *631:151 2.28976e-06
8 *469:14 *795:8 0
9 *469:25 *1570:B 1.34257e-05
10 *468:6 *469:14 5.62196e-06
11 *468:19 *469:25 1.13463e-05
*RES
1 *1312:Y *469:6 18.8045 
2 *469:6 *469:14 41.6361 
3 *469:14 *1569:A 17.2 
4 *469:6 *469:25 39.2448 
5 *469:25 *1313:B 34.4 
*END

*D_NET *470 8.80814e-05
*CONN
*I *1316:A I *D NOR2x1_ASAP7_75t_R
*I *1601:C I *D OR3x1_ASAP7_75t_R
*I *1314:Y O *D AND2x2_ASAP7_75t_R
*CAP
1 *1316:A 6.15116e-06
2 *1601:C 9.23654e-06
3 *1314:Y 4.87982e-06
4 *470:8 2.02675e-05
5 *1316:A *1316:B 5.51397e-07
6 *1601:C *471:12 6.6421e-06
7 *1601:C *721:30 5.0551e-07
8 *1601:C *721:45 2.66045e-05
9 *470:8 *721:45 1.32428e-05
10 *470:8 *874:31 0
*RES
1 *1314:Y *470:8 38.9053 
2 *470:8 *1601:C 44.4803 
3 *470:8 *1316:A 37.0741 
*END

*D_NET *471 5.8699e-05
*CONN
*I *1316:B I *D NOR2x1_ASAP7_75t_R
*I *1601:A I *D OR3x1_ASAP7_75t_R
*I *1315:Y O *D AND2x2_ASAP7_75t_R
*CAP
1 *1316:B 1.51789e-05
2 *1601:A 0
3 *1315:Y 0
4 *471:12 6.18794e-06
5 *471:4 2.13668e-05
6 *471:12 *1315:A 7.24542e-06
7 *471:12 *557:126 1.52651e-06
8 *1316:A *1316:B 5.51397e-07
9 *1601:C *471:12 6.6421e-06
*RES
1 *1315:Y *471:4 17.2 
2 *471:4 *471:12 41.1013 
3 *471:12 *1601:A 17.2 
4 *471:4 *1316:B 25.2224 
*END

*D_NET *472 5.64379e-05
*CONN
*I *1323:B I *D OA21x2_ASAP7_75t_R
*I *1322:Y O *D NAND2x1_ASAP7_75t_R
*CAP
1 *1323:B 3.19118e-06
2 *1322:Y 1.13462e-05
3 *472:10 1.45373e-05
4 *1323:B *1019:14 1.95129e-06
5 *472:10 *537:8 0
6 *472:10 *1019:14 2.32871e-05
7 *472:10 *1019:83 6.7842e-07
8 *472:10 *1019:94 1.44639e-06
9 *472:10 *1112:102 0
*RES
1 *1322:Y *472:10 43.8888 
2 *472:10 *1323:B 36.0045 
*END

*D_NET *473 0.000236228
*CONN
*I *1327:A I *D NOR2x1_ASAP7_75t_R
*I *1491:C I *D OR3x1_ASAP7_75t_R
*I *1325:Y O *D AND2x2_ASAP7_75t_R
*CAP
1 *1327:A 9.64199e-06
2 *1491:C 0
3 *1325:Y 1.10794e-05
4 *473:14 1.74625e-05
5 *473:8 3.81839e-05
6 *1327:A *480:16 9.30483e-06
7 *473:8 *479:8 3.9999e-05
8 *473:8 *773:10 5.79724e-07
9 *473:8 *928:25 1.35151e-06
10 *473:14 *1342:A 5.85387e-06
11 *473:14 *1491:B 1.79505e-05
12 *473:14 *479:8 4.5406e-05
13 *473:14 *479:14 4.83862e-06
14 *473:14 *480:18 1.86384e-05
15 *418:27 *473:8 1.12122e-05
16 *418:29 *1327:A 3.65131e-06
17 *466:10 *1327:A 1.07377e-06
*RES
1 *1325:Y *473:8 48.4791 
2 *473:8 *473:14 38.8801 
3 *473:14 *1491:C 17.2 
4 *473:8 *1327:A 41.3527 
*END

*D_NET *474 0.000149277
*CONN
*I *1327:B I *D NOR2x1_ASAP7_75t_R
*I *1491:B I *D OR3x1_ASAP7_75t_R
*I *1326:Y O *D AND2x2_ASAP7_75t_R
*CAP
1 *1327:B 0
2 *1491:B 2.09854e-05
3 *1326:Y 6.34632e-06
4 *474:12 4.88632e-05
5 *474:8 3.4224e-05
6 *1491:B *1342:A 2.96818e-06
7 *1491:B *1342:B 3.56648e-06
8 *1491:B *1491:A 6.7842e-07
9 *1491:B *585:10 3.65131e-06
10 *1491:B *1115:6 8.146e-06
11 *474:8 *480:10 0
12 *474:12 *480:10 0
13 *474:12 *480:18 0
14 *1495:B *474:12 0
15 *322:29 *474:12 1.89747e-06
16 *466:10 *474:12 0
17 *473:14 *1491:B 1.79505e-05
*RES
1 *1326:Y *474:8 38.9053 
2 *474:8 *474:12 35.7845 
3 *474:12 *1491:B 33.7796 
4 *474:8 *1327:B 34.4 
*END

*D_NET *475 4.19094e-05
*CONN
*I *1333:A I *D OR2x2_ASAP7_75t_R
*I *1431:A I *D OR3x1_ASAP7_75t_R
*I *1331:Y O *D AND2x2_ASAP7_75t_R
*CAP
1 *1333:A 8.59615e-06
2 *1431:A 0
3 *1331:Y 0
4 *475:10 7.67343e-06
5 *475:4 1.62696e-05
6 *1333:A *794:23 2.12481e-06
7 *475:10 *1431:B 7.24542e-06
8 *230:10 *475:10 0
9 *263:10 *475:10 0
*RES
1 *1331:Y *475:4 17.2 
2 *475:4 *475:10 42.2843 
3 *475:10 *1431:A 17.2 
4 *475:4 *1333:A 22.0134 
*END

*D_NET *476 5.75765e-05
*CONN
*I *1333:B I *D OR2x2_ASAP7_75t_R
*I *1431:B I *D OR3x1_ASAP7_75t_R
*I *1332:Y O *D NOR2x1_ASAP7_75t_R
*CAP
1 *1333:B 0
2 *1431:B 1.28439e-05
3 *1332:Y 3.50116e-06
4 *476:8 1.63451e-05
5 *1431:B *794:23 8.33296e-06
6 *476:8 *794:23 8.20229e-06
7 *230:10 *1431:B 1.10561e-06
8 *263:10 *1431:B 0
9 *475:10 *1431:B 7.24542e-06
*RES
1 *1332:Y *476:8 37.779 
2 *476:8 *1431:B 45.6066 
3 *476:8 *1333:B 34.4 
*END

*D_NET *477 8.87369e-05
*CONN
*I *1339:A I *D NOR2x1_ASAP7_75t_R
*I *1470:C I *D OR3x1_ASAP7_75t_R
*I *1337:Y O *D AND2x2_ASAP7_75t_R
*CAP
1 *1339:A 8.47123e-06
2 *1470:C 0
3 *1337:Y 0
4 *477:12 4.25873e-05
5 *477:6 3.4116e-05
6 *1339:A *568:10 1.59615e-06
7 *477:12 *478:12 1.49407e-08
8 *477:12 *478:23 0
9 *477:12 *724:10 0
10 *477:12 *1102:12 0
11 *333:8 *1339:A 1.95129e-06
12 *371:24 *477:12 0
13 *374:10 *477:12 0
*RES
1 *1337:Y *477:6 34.4 
2 *477:6 *477:12 39.67 
3 *477:12 *1470:C 17.2 
4 *477:12 *1339:A 22.5483 
*END

*D_NET *478 0.000101388
*CONN
*I *1339:B I *D NOR2x1_ASAP7_75t_R
*I *1470:A I *D OR3x1_ASAP7_75t_R
*I *1338:Y O *D AND2x2_ASAP7_75t_R
*CAP
1 *1339:B 0
2 *1470:A 0
3 *1338:Y 0
4 *478:23 3.80621e-05
5 *478:12 1.26247e-05
6 *478:4 5.06867e-05
7 *374:10 *478:12 0
8 *477:12 *478:12 1.49407e-08
9 *477:12 *478:23 0
*RES
1 *1338:Y *478:4 17.2 
2 *478:4 *478:12 41.0446 
3 *478:12 *1470:A 17.2 
4 *478:4 *478:23 35.076 
5 *478:23 *1339:B 34.4 
*END

*D_NET *479 0.000329614
*CONN
*I *1342:A I *D NOR2x1_ASAP7_75t_R
*I *1499:C I *D OR3x1_ASAP7_75t_R
*I *1340:Y O *D AND2x2_ASAP7_75t_R
*CAP
1 *1342:A 8.4762e-06
2 *1499:C 0
3 *1340:Y 0
4 *479:14 1.95557e-05
5 *479:8 5.16204e-05
6 *479:6 2.35884e-05
7 *479:8 *1495:A 0
8 *479:8 *773:10 8.96443e-07
9 *479:8 *928:25 1.09842e-06
10 *479:8 *936:25 2.75183e-06
11 *479:14 *1499:A 5.22376e-07
12 *479:14 *1499:B 8.5453e-06
13 *479:14 *480:18 1.09842e-06
14 *479:14 *585:10 3.00603e-06
15 *479:14 *587:10 1.09067e-06
16 *479:14 *1115:14 1.64509e-05
17 *479:14 *1115:22 2.30873e-06
18 *1491:B *1342:A 2.96818e-06
19 *465:8 *479:8 8.95381e-05
20 *473:8 *479:8 3.9999e-05
21 *473:14 *1342:A 5.85387e-06
22 *473:14 *479:8 4.5406e-05
23 *473:14 *479:14 4.83862e-06
*RES
1 *1340:Y *479:6 34.4 
2 *479:6 *479:8 37.169 
3 *479:8 *479:14 33.7549 
4 *479:14 *1499:C 17.2 
5 *479:8 *1342:A 38.1438 
*END

*D_NET *480 0.000210531
*CONN
*I *1342:B I *D NOR2x1_ASAP7_75t_R
*I *1499:B I *D OR3x1_ASAP7_75t_R
*I *1341:Y O *D AND2x2_ASAP7_75t_R
*CAP
1 *1342:B 4.40218e-06
2 *1499:B 9.0537e-06
3 *1341:Y 2.13392e-05
4 *480:18 3.29174e-05
5 *480:16 2.1838e-05
6 *480:10 2.37158e-05
7 *1499:B *1499:A 2.20493e-06
8 *1499:B *584:38 7.17372e-06
9 *1499:B *585:10 0
10 *1499:B *1115:14 5.05908e-06
11 *480:10 *1326:A 2.03526e-06
12 *480:10 *773:6 4.92332e-06
13 *480:10 *773:10 8.33296e-06
14 *480:18 *1115:14 5.69885e-06
15 *1327:A *480:16 9.30483e-06
16 *1491:B *1342:B 3.56648e-06
17 *1495:B *480:18 3.47607e-06
18 *418:14 *480:10 4.15535e-06
19 *418:27 *480:10 4.74248e-06
20 *466:10 *480:16 3.56648e-06
21 *466:10 *480:18 4.74248e-06
22 *473:14 *480:18 1.86384e-05
23 *474:8 *480:10 0
24 *474:12 *480:10 0
25 *474:12 *480:18 0
26 *479:14 *1499:B 8.5453e-06
27 *479:14 *480:18 1.09842e-06
*RES
1 *1341:Y *480:10 49.3504 
2 *480:10 *480:16 37.0741 
3 *480:16 *480:18 18.5845 
4 *480:18 *1499:B 42.7625 
5 *480:18 *1342:B 37.0741 
*END

*D_NET *481 9.52887e-05
*CONN
*I *1346:B I *D NOR2x1_ASAP7_75t_R
*I *1458:A I *D OR3x1_ASAP7_75t_R
*I *1344:Y O *D AND2x4_ASAP7_75t_R
*CAP
1 *1346:B 0
2 *1458:A 1.22534e-05
3 *1344:Y 1.86938e-05
4 *481:8 3.09472e-05
5 *1458:A *482:14 1.73158e-06
6 *1458:A *482:24 2.18983e-05
7 *1458:A *557:22 6.33018e-06
8 *1458:A *560:10 1.12894e-06
9 *1458:A *718:10 0
10 *481:8 *1215:A 0
11 *481:8 *718:10 0
12 *180:8 *1458:A 2.30529e-06
13 *371:105 *481:8 0
14 *379:8 *481:8 0
*RES
1 *1344:Y *481:8 47.3528 
2 *481:8 *1458:A 45.55 
3 *481:8 *1346:B 34.4 
*END

*D_NET *482 0.000141689
*CONN
*I *1458:B I *D OR3x1_ASAP7_75t_R
*I *1346:A I *D NOR2x1_ASAP7_75t_R
*I *1345:Y O *D AND2x2_ASAP7_75t_R
*CAP
1 *1458:B 0
2 *1346:A 0
3 *1345:Y 1.74477e-05
4 *482:24 1.27923e-05
5 *482:14 2.45432e-05
6 *482:10 2.91985e-05
7 *482:10 *718:10 1.12894e-06
8 *482:14 *557:12 1.47071e-05
9 *482:14 *557:22 3.89037e-06
10 *482:14 *718:8 5.25794e-06
11 *482:24 *557:22 1.26641e-06
12 *482:24 *560:10 7.82691e-06
13 *1458:A *482:14 1.73158e-06
14 *1458:A *482:24 2.18983e-05
15 *180:8 *482:10 0
*RES
1 *1345:Y *482:10 43.7754 
2 *482:10 *482:14 26.292 
3 *482:14 *482:24 45.4366 
4 *482:24 *1346:A 17.2 
5 *482:14 *1458:B 17.2 
*END

*D_NET *483 5.23725e-05
*CONN
*I *1350:B I *D NOR2x2_ASAP7_75t_R
*I *1462:A I *D OR3x1_ASAP7_75t_R
*I *1348:Y O *D AND2x4_ASAP7_75t_R
*CAP
1 *1350:B 0
2 *1462:A 1.38094e-05
3 *1348:Y 6.24801e-06
4 *483:8 2.00574e-05
5 *1462:A *1361:A 0
6 *1462:A *488:10 0
7 *1462:A *557:30 3.90551e-06
8 *483:8 *488:10 0
9 *483:8 *557:30 1.09842e-06
10 *373:12 *483:8 7.2538e-06
*RES
1 *1348:Y *483:8 41.158 
2 *483:8 *1462:A 44.537 
3 *483:8 *1350:B 34.4 
*END

*D_NET *484 9.25054e-05
*CONN
*I *1350:A I *D NOR2x2_ASAP7_75t_R
*I *1462:B I *D OR3x1_ASAP7_75t_R
*I *1349:Y O *D AND2x2_ASAP7_75t_R
*CAP
1 *1350:A 1.67039e-06
2 *1462:B 1.22109e-05
3 *1349:Y 2.01462e-05
4 *484:8 3.40275e-05
5 *1350:A *557:30 2.9937e-06
6 *1462:B *557:30 5.06565e-06
7 *1462:B *557:32 2.96818e-06
8 *204:14 *1350:A 3.6269e-06
9 *204:14 *1462:B 5.06565e-06
10 *373:14 *484:8 4.73041e-06
*RES
1 *1349:Y *484:8 43.492 
2 *484:8 *1462:B 43.1839 
3 *484:8 *1350:A 37.2158 
*END

*D_NET *485 5.11271e-05
*CONN
*I *1354:B I *D OA21x2_ASAP7_75t_R
*I *1353:Y O *D NAND2x1_ASAP7_75t_R
*CAP
1 *1354:B 0
2 *1353:Y 1.33154e-05
3 *485:8 1.33154e-05
4 *485:8 *1353:B 2.36328e-05
5 *485:8 *1019:8 0
6 *1611:B *485:8 0
7 *13:8 *485:8 0
8 *14:8 *485:8 5.79724e-07
9 *15:8 *485:8 2.83874e-07
*RES
1 *1353:Y *485:8 45.6633 
2 *485:8 *1354:B 34.4 
*END

*D_NET *486 0.000310864
*CONN
*I *1357:A I *D NOR2x1_ASAP7_75t_R
*I *1503:C I *D OR3x1_ASAP7_75t_R
*I *1355:Y O *D AND2x2_ASAP7_75t_R
*CAP
1 *1357:A 0
2 *1503:C 1.29006e-05
3 *1355:Y 1.82491e-05
4 *486:40 1.78387e-05
5 *486:32 6.65637e-05
6 *486:20 8.89591e-05
7 *486:8 4.55827e-05
8 *1503:C *1503:B 1.35684e-06
9 *1503:C *487:20 5.35878e-06
10 *486:8 *769:23 8.67112e-06
11 *486:32 *583:30 1.64496e-05
12 *486:32 *584:30 4.3768e-06
13 *486:40 *487:10 3.36331e-07
14 *486:40 *487:20 7.09787e-07
15 *185:47 *486:32 0
16 *207:25 *1503:C 1.51587e-05
17 *305:25 *1503:C 7.96585e-06
18 *305:25 *486:40 3.86464e-07
*RES
1 *1355:Y *486:8 49.1362 
2 *486:8 *486:20 48.433 
3 *486:20 *486:32 47.3417 
4 *486:32 *486:40 31.0893 
5 *486:40 *1503:C 45.4366 
6 *486:40 *1357:A 34.4 
*END

*D_NET *487 0.000304689
*CONN
*I *1357:B I *D NOR2x1_ASAP7_75t_R
*I *1503:B I *D OR3x1_ASAP7_75t_R
*I *1356:Y O *D AND2x2_ASAP7_75t_R
*CAP
1 *1357:B 0
2 *1503:B 4.95875e-06
3 *1356:Y 2.248e-06
4 *487:20 2.61097e-05
5 *487:10 6.83619e-05
6 *487:8 4.9459e-05
7 *487:8 *1356:A 6.15528e-07
8 *487:8 *1021:44 5.62196e-06
9 *487:10 *575:10 0
10 *487:10 *769:23 2.14135e-06
11 *487:10 *1021:31 1.81378e-06
12 *487:20 *584:96 2.43887e-07
13 *1481:B *487:10 2.04071e-05
14 *1481:C *487:10 3.46167e-05
15 *1485:B *487:10 2.22736e-06
16 *1503:C *1503:B 1.35684e-06
17 *1503:C *487:20 5.35878e-06
18 *187:10 *487:10 1.12894e-06
19 *206:8 *487:10 0
20 *206:8 *487:20 0
21 *207:25 *487:20 3.21613e-05
22 *305:25 *487:10 4.39023e-06
23 *305:25 *487:20 1.47844e-05
24 *306:8 *487:10 2.56377e-05
25 *486:40 *487:10 3.36331e-07
26 *486:40 *487:20 7.09787e-07
*RES
1 *1356:Y *487:8 36.0045 
2 *487:8 *487:10 46.1796 
3 *487:10 *487:20 49.8569 
4 *487:20 *1503:B 37.0741 
5 *487:10 *1357:B 34.4 
*END

*D_NET *488 0.000172157
*CONN
*I *1466:C I *D OR3x1_ASAP7_75t_R
*I *1361:A I *D NOR2x1_ASAP7_75t_R
*I *1359:Y O *D AND2x2_ASAP7_75t_R
*CAP
1 *1466:C 0
2 *1361:A 2.0233e-05
3 *1359:Y 2.59066e-05
4 *488:10 3.62921e-05
5 *488:6 4.19657e-05
6 *1361:A *1361:B 6.20226e-06
7 *1361:A *1467:B 0
8 *1361:A *489:10 5.49212e-07
9 *1361:A *557:40 2.19448e-07
10 *488:6 *1348:B 7.63254e-06
11 *488:10 *489:10 3.32579e-06
12 *488:10 *716:38 2.98302e-05
13 *1462:A *1361:A 0
14 *1462:A *488:10 0
15 *373:12 *488:10 0
16 *483:8 *488:10 0
*RES
1 *1359:Y *488:6 33.7796 
2 *488:6 *488:10 33.5318 
3 *488:10 *1361:A 48.2241 
4 *488:10 *1466:C 34.4 
*END

*D_NET *489 0.000108179
*CONN
*I *1466:A I *D OR3x1_ASAP7_75t_R
*I *1361:B I *D NOR2x1_ASAP7_75t_R
*I *1360:Y O *D AND2x2_ASAP7_75t_R
*CAP
1 *1466:A 0
2 *1361:B 1.84845e-05
3 *1360:Y 1.04938e-05
4 *489:10 3.07726e-05
5 *489:8 2.27819e-05
6 *1361:B *556:66 0
7 *1361:B *557:40 2.516e-06
8 *489:10 *716:38 4.74248e-06
9 *1361:A *1361:B 6.20226e-06
10 *1361:A *489:10 5.49212e-07
11 *373:20 *489:8 8.31096e-06
12 *488:10 *489:10 3.32579e-06
*RES
1 *1360:Y *489:8 40.2831 
2 *489:8 *489:10 10.137 
3 *489:10 *1361:B 48.3941 
4 *489:10 *1466:A 34.4 
*END

*D_NET *490 8.21567e-05
*CONN
*I *1508:C I *D OR3x1_ASAP7_75t_R
*I *1365:A I *D NOR2x1_ASAP7_75t_R
*I *1363:Y O *D AND2x2_ASAP7_75t_R
*CAP
1 *1508:C 2.76889e-06
2 *1365:A 9.00833e-06
3 *1363:Y 1.6213e-05
4 *490:8 2.79902e-05
5 *1365:A *1365:B 2.53845e-06
6 *1365:A *491:8 1.12894e-06
7 *1365:A *584:135 5.08533e-06
8 *1508:C *1508:B 2.12481e-06
9 *490:8 *491:8 2.25787e-06
10 *490:8 *768:16 1.30409e-05
*RES
1 *1363:Y *490:8 47.3528 
2 *490:8 *1365:A 42.2843 
3 *490:8 *1508:C 36.0045 
*END

*D_NET *491 6.90774e-05
*CONN
*I *1508:B I *D OR3x1_ASAP7_75t_R
*I *1365:B I *D NOR2x1_ASAP7_75t_R
*I *1364:Y O *D AND2x2_ASAP7_75t_R
*CAP
1 *1508:B 7.27674e-06
2 *1365:B 1.31199e-05
3 *1364:Y 9.3392e-06
4 *491:8 2.97358e-05
5 *1365:B *583:115 1.55569e-06
6 *491:8 *593:10 0
7 *1365:A *1365:B 2.53845e-06
8 *1365:A *491:8 1.12894e-06
9 *1508:C *1508:B 2.12481e-06
10 *490:8 *491:8 2.25787e-06
*RES
1 *1364:Y *491:8 41.158 
2 *491:8 *1365:B 42.7625 
3 *491:8 *1508:B 38.6786 
*END

*D_NET *492 0.000151868
*CONN
*I *1368:A I *D INVx1_ASAP7_75t_R
*I *1376:B I *D AO21x1_ASAP7_75t_R
*I *1367:Y O *D OR4x1_ASAP7_75t_R
*CAP
1 *1368:A 0
2 *1376:B 0
3 *1367:Y 8.57154e-06
4 *492:18 3.12122e-05
5 *492:12 5.8821e-05
6 *492:8 3.61803e-05
7 *492:18 *499:8 4.84697e-07
8 *492:18 *506:10 1.13611e-05
9 *1369:A *492:8 5.23722e-06
*RES
1 *1367:Y *492:8 41.158 
2 *492:8 *492:12 32.7099 
3 *492:12 *492:18 37.4987 
4 *492:18 *1376:B 34.4 
5 *492:12 *1368:A 17.2 
*END

*D_NET *493 3.15309e-05
*CONN
*I *1377:A1 I *D OA21x2_ASAP7_75t_R
*I *1368:Y O *D INVx1_ASAP7_75t_R
*CAP
1 *1377:A1 2.60843e-06
2 *1368:Y 8.99299e-06
3 *493:8 1.16014e-05
4 *1377:A1 *501:8 8.3281e-06
*RES
1 *1368:Y *493:8 40.0317 
2 *493:8 *1377:A1 36.5393 
*END

*D_NET *494 0.000129165
*CONN
*I *1373:A1 I *D OA211x2_ASAP7_75t_R
*I *1369:Y O *D OR2x2_ASAP7_75t_R
*CAP
1 *1373:A1 1.85104e-05
2 *1369:Y 1.63745e-05
3 *494:10 3.4885e-05
4 *1373:A1 *1373:A2 4.05232e-06
5 *1373:A1 *1078:8 2.03526e-06
6 *494:10 *1367:A 7.35063e-07
7 *1369:B *494:10 2.48004e-05
8 *1371:B *494:10 4.71862e-06
9 *2043:A *1373:A1 2.03526e-06
10 *215:12 *1373:A1 6.75247e-06
11 *215:23 *494:10 1.42652e-05
*RES
1 *1369:Y *494:10 47.5759 
2 *494:10 *1373:A1 45.0965 
*END

*D_NET *495 9.84144e-05
*CONN
*I *1373:A2 I *D OA211x2_ASAP7_75t_R
*I *1370:Y O *D OA21x2_ASAP7_75t_R
*CAP
1 *1373:A2 1.09477e-05
2 *1370:Y 2.19725e-05
3 *495:8 3.29202e-05
4 *1373:A2 *498:16 1.50255e-06
5 *1370:A2 *495:8 1.75952e-06
6 *1373:A1 *1373:A2 4.05232e-06
7 *214:8 *1373:A2 0
8 *218:12 *495:8 0
9 *302:12 *495:8 8.22301e-06
10 *303:22 *1373:A2 1.70367e-05
*RES
1 *1370:Y *495:8 43.492 
2 *495:8 *1373:A2 43.354 
*END

*D_NET *496 0.000128236
*CONN
*I *1373:C I *D OA211x2_ASAP7_75t_R
*I *1371:Y O *D AO21x1_ASAP7_75t_R
*CAP
1 *1373:C 0
2 *1371:Y 2.57064e-05
3 *496:14 3.5155e-05
4 *496:8 6.08614e-05
5 *496:14 *498:8 6.51333e-06
*RES
1 *1371:Y *496:8 48.8403 
2 *496:8 *496:14 40.0631 
3 *496:14 *1373:C 17.2 
*END

*D_NET *497 9.34746e-05
*CONN
*I *1373:B I *D OA211x2_ASAP7_75t_R
*I *1372:Y O *D NAND2x1_ASAP7_75t_R
*CAP
1 *1373:B 1.81797e-05
2 *1372:Y 2.33135e-05
3 *497:8 4.14932e-05
4 *1373:B *498:8 6.38283e-07
5 *1373:B *498:16 9.84991e-06
6 *1371:A2 *1373:B 0
*RES
1 *1372:Y *497:8 43.492 
2 *497:8 *1373:B 47.916 
*END

*D_NET *498 0.000333011
*CONN
*I *1382:B I *D OA211x2_ASAP7_75t_R
*I *1377:A2 I *D OA21x2_ASAP7_75t_R
*I *1373:Y O *D OA211x2_ASAP7_75t_R
*CAP
1 *1382:B 0
2 *1377:A2 3.40508e-06
3 *1373:Y 1.85678e-06
4 *498:39 3.83813e-05
5 *498:22 4.17864e-05
6 *498:20 5.78608e-05
7 *498:16 7.64032e-05
8 *498:8 2.03991e-05
9 *1377:A2 *501:8 5.84952e-07
10 *498:39 *1382:C 3.89037e-06
11 *498:39 *502:12 0
12 *498:39 *507:10 8.4825e-06
13 *1373:A2 *498:16 1.50255e-06
14 *1373:B *498:8 6.38283e-07
15 *1373:B *498:16 9.84991e-06
16 *303:22 *498:20 6.14564e-05
17 *496:14 *498:8 6.51333e-06
*RES
1 *1373:Y *498:8 36.5588 
2 *498:8 *498:16 41.6462 
3 *498:16 *498:20 39.0602 
4 *498:20 *498:22 17.2 
5 *498:22 *1377:A2 36.1267 
6 *498:22 *498:39 40.5004 
7 *498:39 *1382:B 17.2 
*END

*D_NET *499 3.72823e-05
*CONN
*I *1376:A1 I *D AO21x1_ASAP7_75t_R
*I *1374:Y O *D NOR2x1_ASAP7_75t_R
*CAP
1 *1376:A1 3.12812e-06
2 *1374:Y 1.02274e-05
3 *499:8 1.33555e-05
4 *1376:A1 *1376:A2 1.23489e-06
5 *499:8 *506:10 5.80092e-06
6 *94:12 *499:8 3.05074e-06
7 *492:18 *499:8 4.84697e-07
*RES
1 *1374:Y *499:8 42.2843 
2 *499:8 *1376:A1 36.0045 
*END

*D_NET *500 0.000116604
*CONN
*I *1376:A2 I *D AO21x1_ASAP7_75t_R
*I *1375:Y O *D NOR2x1_ASAP7_75t_R
*CAP
1 *1376:A2 2.07444e-05
2 *1375:Y 6.29051e-06
3 *500:18 3.84771e-05
4 *500:10 2.40233e-05
5 *1376:A2 *506:10 2.05344e-05
6 *500:10 *1178:A 9.425e-07
7 *500:10 *505:10 5.30879e-07
8 *500:10 *734:25 4.03043e-07
9 *500:18 *743:10 3.88042e-07
10 *1376:A1 *1376:A2 1.23489e-06
11 *94:25 *1376:A2 2.92255e-06
12 *178:8 *500:10 1.1211e-07
13 *179:10 *500:18 0
*RES
1 *1375:Y *500:10 38.2943 
2 *500:10 *500:18 39.7612 
3 *500:18 *1376:A2 47.2358 
*END

*D_NET *501 8.18073e-05
*CONN
*I *1377:B I *D OA21x2_ASAP7_75t_R
*I *1376:Y O *D AO21x1_ASAP7_75t_R
*CAP
1 *1377:B 4.30681e-06
2 *1376:Y 3.21403e-05
3 *501:8 3.64471e-05
4 *1377:A1 *501:8 8.3281e-06
5 *1377:A2 *501:8 5.84952e-07
*RES
1 *1376:Y *501:8 48.3055 
2 *501:8 *1377:B 37.2158 
*END

*D_NET *502 0.000302293
*CONN
*I *1385:A2 I *D OA21x2_ASAP7_75t_R
*I *1387:A2 I *D OA21x2_ASAP7_75t_R
*I *1389:A1 I *D OA21x2_ASAP7_75t_R
*I *1384:A I *D NOR2x2_ASAP7_75t_R
*I *1992:A I *D BUFx3_ASAP7_75t_R
*I *1377:Y O *D OA21x2_ASAP7_75t_R
*CAP
1 *1385:A2 1.68555e-05
2 *1387:A2 8.39635e-06
3 *1389:A1 1.77172e-05
4 *1384:A 0
5 *1992:A 4.98483e-06
6 *1377:Y 0
7 *502:39 3.59509e-05
8 *502:25 1.77172e-05
9 *502:23 2.68481e-05
10 *502:12 5.37652e-05
11 *502:6 3.26313e-05
12 *1385:A2 *507:66 3.90258e-06
13 *1385:A2 *509:17 1.908e-06
14 *1385:A2 *511:10 5.85387e-06
15 *1385:A2 *736:26 1.42636e-06
16 *1389:A1 *1389:A2 1.09133e-05
17 *1389:A1 *507:43 5.09299e-06
18 *1389:A1 *507:58 1.44639e-06
19 *502:12 *746:26 2.66147e-05
20 *502:12 *1027:18 0
21 *502:23 *1603:A1 8.30938e-06
22 *502:23 *507:51 2.77657e-06
23 *502:23 *650:10 3.16603e-06
24 *502:23 *746:26 0
25 *502:23 *1027:18 4.97654e-06
26 *502:39 *507:51 1.12894e-06
27 *502:39 *509:17 6.95214e-06
28 *310:8 *502:12 0
29 *330:10 *1385:A2 2.24111e-07
30 *330:10 *502:23 8.2174e-07
31 *330:10 *502:39 1.91241e-06
32 *498:39 *502:12 0
*RES
1 *1377:Y *502:6 34.4 
2 *502:6 *502:12 40.4845 
3 *502:12 *1992:A 19.8741 
4 *502:12 *502:23 31.2792 
5 *502:23 *502:25 17.2 
6 *502:25 *1384:A 17.2 
7 *502:25 *1389:A1 29.501 
8 *502:23 *502:39 9.01066 
9 *502:39 *1387:A2 39.2134 
10 *502:39 *1385:A2 44.7034 
*END

*D_NET *503 3.13527e-05
*CONN
*I *1382:A1 I *D OA211x2_ASAP7_75t_R
*I *1378:Y O *D OR2x2_ASAP7_75t_R
*CAP
1 *1382:A1 2.39672e-06
2 *1378:Y 1.03658e-05
3 *503:8 1.27625e-05
4 *503:8 *507:10 3.8274e-06
5 *1378:B *503:8 1.51031e-06
6 *94:8 *503:8 4.90042e-07
*RES
1 *1378:Y *503:8 42.2843 
2 *503:8 *1382:A1 35.4697 
*END

*D_NET *504 8.80698e-06
*CONN
*I *1380:A1 I *D OA21x2_ASAP7_75t_R
*I *1379:Y O *D INVx1_ASAP7_75t_R
*CAP
1 *1380:A1 4.40349e-06
2 *1379:Y 4.40349e-06
*RES
1 *1379:Y *1380:A1 36.5393 
*END

*D_NET *505 0.000277115
*CONN
*I *1382:A2 I *D OA211x2_ASAP7_75t_R
*I *1380:Y O *D OA21x2_ASAP7_75t_R
*CAP
1 *1382:A2 0
2 *1380:Y 3.66521e-05
3 *505:22 1.21074e-05
4 *505:14 3.78035e-05
5 *505:10 4.48092e-05
6 *505:6 5.57651e-05
7 *505:6 *742:25 1.14451e-05
8 *505:10 *733:21 1.89733e-05
9 *505:10 *1026:30 2.81851e-06
10 *505:10 *1026:38 4.90042e-07
11 *505:14 *514:10 1.87504e-06
12 *505:14 *1026:24 3.51244e-05
13 *505:14 *1026:30 3.91501e-06
14 *1672:A *505:6 5.22376e-07
15 *93:8 *505:22 7.64042e-07
16 *179:10 *505:22 7.86436e-06
17 *212:16 *505:6 5.655e-06
18 *500:10 *505:10 5.30879e-07
*RES
1 *1380:Y *505:6 39.6627 
2 *505:6 *505:10 34.6581 
3 *505:10 *505:14 33.7796 
4 *505:14 *505:22 41.4944 
5 *505:22 *1382:A2 17.2 
*END

*D_NET *506 0.000108933
*CONN
*I *1382:C I *D OA211x2_ASAP7_75t_R
*I *1381:Y O *D OA21x2_ASAP7_75t_R
*CAP
1 *1382:C 1.77313e-06
2 *1381:Y 1.56315e-05
3 *506:18 1.80416e-05
4 *506:10 3.19e-05
5 *1376:A2 *506:10 2.05344e-05
6 *492:18 *506:10 1.13611e-05
7 *498:39 *1382:C 3.89037e-06
8 *499:8 *506:10 5.80092e-06
*RES
1 *1381:Y *506:10 45.3516 
2 *506:10 *506:18 43.8321 
3 *506:18 *1382:C 35.4697 
*END

*D_NET *507 0.000365503
*CONN
*I *1389:A2 I *D OA21x2_ASAP7_75t_R
*I *1385:A1 I *D OA21x2_ASAP7_75t_R
*I *1603:A2 I *D OA21x2_ASAP7_75t_R
*I *1384:B I *D NOR2x2_ASAP7_75t_R
*I *1387:A1 I *D OA21x2_ASAP7_75t_R
*I *1991:A I *D BUFx3_ASAP7_75t_R
*I *1382:Y O *D OA211x2_ASAP7_75t_R
*CAP
1 *1389:A2 1.54658e-05
2 *1385:A1 0
3 *1603:A2 0
4 *1384:B 0
5 *1387:A1 0
6 *1991:A 0
7 *1382:Y 1.63869e-05
8 *507:66 1.2008e-05
9 *507:58 2.99673e-05
10 *507:51 1.47932e-05
11 *507:43 2.64556e-05
12 *507:36 1.18267e-05
13 *507:29 7.70277e-06
14 *507:23 4.24462e-05
15 *507:10 4.84724e-05
16 *507:23 *1981:A 2.31575e-05
17 *507:23 *747:47 4.15076e-06
18 *507:23 *1016:81 1.3295e-05
19 *507:23 *1026:16 0
20 *507:36 *1981:A 1.95129e-06
21 *507:36 *509:17 7.13384e-06
22 *507:43 *509:17 2.68282e-05
23 *507:51 *650:10 1.36155e-06
24 *507:51 *746:26 1.10561e-06
25 *507:66 *509:17 7.88701e-06
26 *507:66 *511:10 7.69536e-06
27 *507:66 *746:26 5.58366e-06
28 *1378:B *507:10 0
29 *1378:B *507:23 0
30 *1385:A2 *507:66 3.90258e-06
31 *1389:A1 *1389:A2 1.09133e-05
32 *1389:A1 *507:43 5.09299e-06
33 *1389:A1 *507:58 1.44639e-06
34 *330:10 *507:23 0
35 *330:10 *507:29 2.25787e-06
36 *498:39 *507:10 8.4825e-06
37 *502:23 *507:51 2.77657e-06
38 *502:39 *507:51 1.12894e-06
39 *503:8 *507:10 3.8274e-06
*RES
1 *1382:Y *507:10 43.7188 
2 *507:10 *1991:A 34.4 
3 *507:10 *507:23 43.8635 
4 *507:23 *507:29 40.0317 
5 *507:29 *1387:A1 17.2 
6 *507:23 *507:36 2.67412 
7 *507:36 *1384:B 17.2 
8 *507:36 *507:43 9.09202 
9 *507:43 *507:51 44.4803 
10 *507:51 *1603:A2 17.2 
11 *507:43 *507:58 1.60448 
12 *507:58 *507:66 45.6066 
13 *507:66 *1385:A1 17.2 
14 *507:58 *1389:A2 28.4313 
*END

*D_NET *509 0.000296202
*CONN
*I *1386:A2 I *D AO21x2_ASAP7_75t_R
*I *1390:A2 I *D AO21x1_ASAP7_75t_R
*I *1388:A2 I *D AO21x1_ASAP7_75t_R
*I *1981:A I *D BUFx3_ASAP7_75t_R
*I *1384:Y O *D NOR2x2_ASAP7_75t_R
*CAP
1 *1386:A2 0
2 *1390:A2 1.23252e-05
3 *1388:A2 0
4 *1981:A 1.21683e-05
5 *1384:Y 0
6 *509:32 2.20286e-05
7 *509:26 2.82161e-05
8 *509:19 1.85127e-05
9 *509:17 2.9058e-05
10 *509:4 4.12264e-05
11 *1981:A *1016:10 1.51653e-06
12 *509:17 *511:10 2.28718e-05
13 *509:17 *745:55 6.40127e-07
14 *509:17 *746:24 0
15 *509:26 *1386:A1 5.51397e-07
16 *509:26 *1388:B 1.36155e-06
17 *509:32 *510:8 1.33022e-05
18 *509:32 *746:24 1.02824e-06
19 *509:32 *746:26 5.52807e-07
20 *1385:A2 *509:17 1.908e-06
21 *224:8 *1390:A2 1.42799e-05
22 *224:10 *509:32 7.44362e-07
23 *330:10 *509:17 0
24 *502:39 *509:17 6.95214e-06
25 *507:23 *1981:A 2.31575e-05
26 *507:36 *1981:A 1.95129e-06
27 *507:36 *509:17 7.13384e-06
28 *507:43 *509:17 2.68282e-05
29 *507:66 *509:17 7.88701e-06
*RES
1 *1384:Y *509:4 17.2 
2 *509:4 *1981:A 27.3617 
3 *509:4 *509:17 43.6935 
4 *509:17 *509:19 17.2 
5 *509:19 *1388:A2 17.2 
6 *509:19 *509:26 10.1617 
7 *509:26 *509:32 42.2843 
8 *509:32 *1390:A2 25.7572 
9 *509:26 *1386:A2 17.2 
*END

*D_NET *510 2.8633e-05
*CONN
*I *1386:B I *D AO21x2_ASAP7_75t_R
*I *1385:Y O *D OA21x2_ASAP7_75t_R
*CAP
1 *1386:B 2.5525e-06
2 *1385:Y 4.5484e-06
3 *510:8 7.1009e-06
4 *224:10 *510:8 1.12894e-06
5 *509:32 *510:8 1.33022e-05
*RES
1 *1385:Y *510:8 38.9053 
2 *510:8 *1386:B 35.4697 
*END

*D_NET *511 6.3057e-05
*CONN
*I *1388:B I *D AO21x1_ASAP7_75t_R
*I *1387:Y O *D OA21x2_ASAP7_75t_R
*CAP
1 *1388:B 2.07914e-06
2 *1387:Y 1.00127e-05
3 *511:10 1.20919e-05
4 *511:10 *746:24 2.68933e-07
5 *511:10 *746:26 8.2174e-07
6 *1385:A2 *511:10 5.85387e-06
7 *507:66 *511:10 7.69536e-06
8 *509:17 *511:10 2.28718e-05
9 *509:26 *1388:B 1.36155e-06
*RES
1 *1387:Y *511:10 43.8888 
2 *511:10 *1388:B 35.4697 
*END

*D_NET *512 1.44727e-05
*CONN
*I *1390:B I *D AO21x1_ASAP7_75t_R
*I *1389:Y O *D OA21x2_ASAP7_75t_R
*CAP
1 *1390:B 0
2 *1389:Y 6.45922e-06
3 *512:8 6.45922e-06
4 *512:8 *736:20 7.67375e-07
5 *512:8 *744:18 7.86872e-07
6 *512:8 *747:10 0
*RES
1 *1389:Y *512:8 40.0317 
2 *512:8 *1390:B 34.4 
*END

*D_NET *513 2.84018e-05
*CONN
*I *1392:B I *D AO21x1_ASAP7_75t_R
*I *1391:Y O *D OA21x2_ASAP7_75t_R
*CAP
1 *1392:B 4.71376e-06
2 *1391:Y 6.70596e-06
3 *513:8 1.14197e-05
4 *513:8 *747:47 0
5 *513:8 *1016:16 2.1664e-06
6 *513:8 *1026:16 7.84037e-07
7 *199:8 *1392:B 2.61188e-06
*RES
1 *1391:Y *513:8 40.0317 
2 *513:8 *1392:B 37.609 
*END

*D_NET *514 3.69117e-05
*CONN
*I *1394:B I *D AO21x1_ASAP7_75t_R
*I *1393:Y O *D OA21x2_ASAP7_75t_R
*CAP
1 *1394:B 4.12526e-06
2 *1393:Y 1.10311e-05
3 *514:10 1.51563e-05
4 *514:10 *1392:A1 5.67747e-07
5 *514:10 *742:8 0
6 *514:10 *1026:24 1.95129e-06
7 *298:8 *1394:B 2.20493e-06
8 *505:14 *514:10 1.87504e-06
*RES
1 *1393:Y *514:10 40.5098 
2 *514:10 *1394:B 37.0741 
*END

*D_NET *515 7.5918e-05
*CONN
*I *1396:B I *D AO21x1_ASAP7_75t_R
*I *1395:Y O *D OA21x2_ASAP7_75t_R
*CAP
1 *1396:B 0
2 *1395:Y 3.68141e-05
3 *515:6 3.68141e-05
4 *264:8 *515:6 2.28976e-06
*RES
1 *1395:Y *515:6 38.593 
2 *515:6 *1396:B 17.2 
*END

*D_NET *516 2.45422e-05
*CONN
*I *1398:B I *D AO21x1_ASAP7_75t_R
*I *1397:Y O *D NOR2x1_ASAP7_75t_R
*CAP
1 *1398:B 4.08583e-06
2 *1397:Y 5.0868e-06
3 *516:8 9.17263e-06
4 *516:8 *1398:A2 5.67735e-06
5 *228:8 *1398:B 5.19552e-07
6 *264:10 *516:8 0
*RES
1 *1397:Y *516:8 38.9053 
2 *516:8 *1398:B 36.5393 
*END

*D_NET *517 1.8269e-05
*CONN
*I *1400:A2 I *D OA21x2_ASAP7_75t_R
*I *1399:Y O *D INVx1_ASAP7_75t_R
*CAP
1 *1400:A2 7.3062e-06
2 *1399:Y 7.3062e-06
3 *266:16 *1400:A2 3.65663e-06
*RES
1 *1399:Y *1400:A2 39.7482 
*END

*D_NET *518 3.27776e-05
*CONN
*I *1401:A2 I *D OA21x2_ASAP7_75t_R
*I *1400:Y O *D OA21x2_ASAP7_75t_R
*CAP
1 *1401:A2 1.08706e-05
2 *1400:Y 1.08706e-05
3 *265:14 *1401:A2 1.95129e-06
4 *266:16 *1401:A2 9.08513e-06
*RES
1 *1400:Y *1401:A2 41.3527 
*END

*D_NET *519 5.04497e-05
*CONN
*I *1404:A2 I *D OA211x2_ASAP7_75t_R
*I *1401:Y O *D OA21x2_ASAP7_75t_R
*CAP
1 *1404:A2 1.57096e-05
2 *1401:Y 1.57096e-05
3 *1404:A2 *1094:8 3.05302e-06
4 *2059:A *1404:A2 2.12481e-06
5 *201:16 *1404:A2 1.38527e-05
*RES
1 *1401:Y *1404:A2 46.1661 
*END

*D_NET *520 0.00016019
*CONN
*I *1403:A2 I *D OA211x2_ASAP7_75t_R
*I *1402:Y O *D OA21x2_ASAP7_75t_R
*CAP
1 *1403:A2 0
2 *1402:Y 6.16447e-06
3 *520:22 1.24234e-05
4 *520:14 4.66848e-05
5 *520:8 4.04259e-05
6 *520:14 *521:8 1.35151e-06
7 *520:14 *1012:10 0
8 *1402:A2 *520:8 1.62312e-05
9 *289:8 *520:14 6.33206e-06
10 *290:18 *520:22 8.33296e-06
11 *290:30 *520:14 5.82688e-07
12 *290:30 *520:22 6.7842e-07
13 *330:10 *520:14 0
14 *330:10 *520:22 1.62854e-06
15 *331:25 *520:14 1.93545e-05
*RES
1 *1402:Y *520:8 39.2134 
2 *520:8 *520:14 38.3452 
3 *520:14 *520:22 43.2406 
4 *520:22 *1403:A2 17.2 
*END

*D_NET *521 0.000322058
*CONN
*I *1409:A2 I *D AO21x1_ASAP7_75t_R
*I *1404:B I *D OA211x2_ASAP7_75t_R
*I *1403:Y O *D OA211x2_ASAP7_75t_R
*CAP
1 *1409:A2 0
2 *1404:B 2.8626e-06
3 *1403:Y 2.02994e-06
4 *521:26 2.20528e-05
5 *521:20 3.01787e-05
6 *521:14 5.79623e-05
7 *521:8 4.90038e-05
8 *521:8 *1012:10 0
9 *521:14 *993:18 3.28924e-05
10 *521:20 *1409:B 1.36155e-06
11 *521:20 *522:10 0
12 *521:20 *523:14 8.87763e-06
13 *521:20 *1094:10 0
14 *521:26 *523:14 1.03895e-05
15 *521:26 *523:18 9.52454e-06
16 *521:26 *524:12 2.38942e-05
17 *521:26 *525:14 8.06436e-06
18 *521:26 *1094:10 4.86244e-05
19 *200:16 *1404:B 9.52454e-06
20 *201:16 *1404:B 3.46317e-06
21 *201:16 *521:26 0
22 *520:14 *521:8 1.35151e-06
*RES
1 *1403:Y *521:8 35.8079 
2 *521:8 *521:14 49.7671 
3 *521:14 *521:20 24.661 
4 *521:20 *521:26 39.4149 
5 *521:26 *1404:B 37.0741 
6 *521:20 *1409:A2 17.2 
*END

*D_NET *522 0.000149253
*CONN
*I *1411:A2 I *D OA21x2_ASAP7_75t_R
*I *1958:A I *D BUFx3_ASAP7_75t_R
*I *1404:Y O *D OA211x2_ASAP7_75t_R
*CAP
1 *1411:A2 2.23075e-06
2 *1958:A 0
3 *1404:Y 1.38776e-05
4 *522:25 2.49704e-05
5 *522:10 5.00419e-05
6 *522:8 4.11799e-05
7 *1411:A2 *1411:B 3.61852e-06
8 *1411:A2 *1094:10 1.34466e-06
9 *522:10 *523:14 6.61222e-06
10 *522:10 *526:8 0
11 *522:10 *527:10 0
12 *522:10 *993:10 1.45743e-06
13 *522:25 *1411:B 0
14 *256:22 *522:10 3.92018e-06
15 *330:10 *522:10 0
16 *330:10 *522:25 0
17 *521:20 *522:10 0
*RES
1 *1404:Y *522:8 40.2831 
2 *522:8 *522:10 21.4003 
3 *522:10 *1958:A 34.4 
4 *522:10 *522:25 47.4342 
5 *522:25 *1411:A2 37.2158 
*END

*D_NET *523 0.000321471
*CONN
*I *1409:A1 I *D AO21x1_ASAP7_75t_R
*I *1407:A I *D OR5x1_ASAP7_75t_R
*I *1405:Y O *D OR3x1_ASAP7_75t_R
*CAP
1 *1409:A1 0
2 *1407:A 1.47245e-05
3 *1405:Y 2.34105e-05
4 *523:18 7.19532e-05
5 *523:14 7.22362e-05
6 *523:8 3.84179e-05
7 *1407:A *1428:B 2.20128e-06
8 *1407:A *1009:8 5.52652e-06
9 *523:14 *526:8 0
10 *523:14 *527:10 1.94746e-05
11 *523:14 *1094:10 0
12 *523:18 *2047:A 8.87763e-06
13 *523:18 *1082:10 5.19475e-06
14 *1405:B *523:8 6.70433e-06
15 *229:6 *1407:A 7.35354e-06
16 *256:22 *523:8 1.04475e-06
17 *264:23 *1407:A 0
18 *264:23 *523:18 5.62196e-06
19 *265:14 *1407:A 3.32579e-06
20 *521:20 *523:14 8.87763e-06
21 *521:26 *523:14 1.03895e-05
22 *521:26 *523:18 9.52454e-06
23 *522:10 *523:14 6.61222e-06
*RES
1 *1405:Y *523:8 45.6313 
2 *523:8 *523:14 32.4302 
3 *523:14 *523:18 49.8243 
4 *523:18 *1407:A 46.6763 
5 *523:14 *1409:A1 17.2 
*END

*D_NET *524 0.000130195
*CONN
*I *1408:A I *D NAND2x1_ASAP7_75t_R
*I *1406:Y O *D INVx1_ASAP7_75t_R
*CAP
1 *1408:A 0
2 *1406:Y 5.75326e-06
3 *524:12 3.30544e-05
4 *524:8 3.88076e-05
5 *524:12 *527:22 1.49407e-08
6 *524:12 *996:10 0
7 *524:12 *1082:10 1.09842e-06
8 *524:12 *1094:10 2.65615e-05
9 *1406:A *524:8 1.01102e-06
10 *198:12 *524:12 0
11 *521:26 *524:12 2.38942e-05
*RES
1 *1406:Y *524:8 37.0741 
2 *524:8 *524:12 47.0478 
3 *524:12 *1408:A 17.2 
*END

*D_NET *525 0.000140728
*CONN
*I *1408:B I *D NAND2x1_ASAP7_75t_R
*I *1407:Y O *D OR5x1_ASAP7_75t_R
*CAP
1 *1408:B 0
2 *1407:Y 3.90794e-05
3 *525:14 1.56228e-05
4 *525:6 5.47023e-05
5 *199:14 *525:6 1.5804e-05
6 *200:8 *525:14 1.12894e-06
7 *201:10 *525:6 0
8 *201:25 *525:6 6.32656e-06
9 *521:26 *525:14 8.06436e-06
*RES
1 *1407:Y *525:6 35.9189 
2 *525:6 *525:14 44.1686 
3 *525:14 *1408:B 17.2 
*END

*D_NET *526 2.19819e-05
*CONN
*I *1409:B I *D AO21x1_ASAP7_75t_R
*I *1408:Y O *D NAND2x1_ASAP7_75t_R
*CAP
1 *1409:B 2.07914e-06
2 *1408:Y 8.23101e-06
3 *526:8 1.03102e-05
4 *526:8 *1094:10 0
5 *521:20 *1409:B 1.36155e-06
6 *522:10 *526:8 0
7 *523:14 *526:8 0
*RES
1 *1408:Y *526:8 40.0317 
2 *526:8 *1409:B 35.4697 
*END

*D_NET *527 0.000142122
*CONN
*I *1411:A1 I *D OA21x2_ASAP7_75t_R
*I *2047:A I *D BUFx3_ASAP7_75t_R
*I *1409:Y O *D AO21x1_ASAP7_75t_R
*CAP
1 *1411:A1 0
2 *2047:A 2.94854e-06
3 *1409:Y 1.65445e-05
4 *527:22 2.96772e-05
5 *527:14 3.18505e-05
6 *527:10 2.16664e-05
7 *527:10 *1094:10 1.12894e-06
8 *527:22 *1082:10 9.93857e-06
9 *198:12 *527:22 0
10 *522:10 *527:10 0
11 *523:14 *527:10 1.94746e-05
12 *523:18 *2047:A 8.87763e-06
13 *524:12 *527:22 1.49407e-08
*RES
1 *1409:Y *527:10 43.6621 
2 *527:10 *527:14 19.8741 
3 *527:14 *527:22 48.054 
4 *527:22 *2047:A 19.8741 
5 *527:14 *1411:A1 17.2 
*END

*D_NET *528 0.000133941
*CONN
*I *1961:A I *D BUFx3_ASAP7_75t_R
*I *1411:B I *D OA21x2_ASAP7_75t_R
*I *1410:Y O *D NAND2x1_ASAP7_75t_R
*CAP
1 *1961:A 0
2 *1411:B 1.18476e-05
3 *1410:Y 7.13603e-07
4 *528:21 3.32231e-05
5 *528:8 4.57843e-05
6 *1411:B *529:8 5.52807e-07
7 *1411:B *1002:10 8.58704e-06
8 *1411:B *1094:10 0
9 *1411:B *1112:10 1.53071e-05
10 *528:8 *1002:10 4.97654e-06
11 *528:8 *1112:10 3.36367e-06
12 *528:21 *1410:A 5.19475e-06
13 *528:21 *996:10 7.72307e-07
14 *1411:A2 *1411:B 3.61852e-06
15 *522:25 *1411:B 0
*RES
1 *1410:Y *528:8 36.0895 
2 *528:8 *1411:B 45.6633 
3 *528:8 *528:21 35.9189 
4 *528:21 *1961:A 17.2 
*END

*D_NET *529 0.000259724
*CONN
*I *2046:A I *D BUFx3_ASAP7_75t_R
*I *2078:A I *D BUFx6f_ASAP7_75t_R
*I *2077:A I *D BUFx6f_ASAP7_75t_R
*I *1411:Y O *D OA21x2_ASAP7_75t_R
*CAP
1 *2046:A 0
2 *2078:A 0
3 *2077:A 0
4 *1411:Y 1.17599e-05
5 *529:48 2.65349e-05
6 *529:35 1.27539e-05
7 *529:29 6.23146e-05
8 *529:25 5.3153e-05
9 *529:8 4.18872e-05
10 *529:8 *1002:10 3.84449e-06
11 *529:25 *828:20 3.58461e-07
12 *529:25 *993:18 0
13 *529:25 *1002:10 9.15354e-08
14 *529:35 *1084:8 8.52381e-06
15 *529:35 *1113:10 0
16 *529:48 *1081:50 2.94325e-05
17 *1411:B *529:8 5.52807e-07
18 *1717:A *529:35 0
19 *223:10 *529:48 3.09138e-06
20 *287:50 *529:48 5.42512e-06
21 *329:10 *529:35 0
22 *330:10 *529:8 0
*RES
1 *1411:Y *529:8 43.4107 
2 *529:8 *2077:A 34.4 
3 *529:8 *529:25 42.4517 
4 *529:25 *529:29 21.9185 
5 *529:29 *529:35 43.5045 
6 *529:35 *2078:A 17.2 
7 *529:29 *529:48 48.9841 
8 *529:48 *2046:A 17.2 
*END

*D_NET *532 4.75432e-05
*CONN
*I *1415:B I *D AOI21x1_ASAP7_75t_R
*I *1414:Y O *D NOR2x2_ASAP7_75t_R
*CAP
1 *1415:B 1.73501e-05
2 *1414:Y 4.80049e-06
3 *532:8 2.21505e-05
4 *1415:B *1423:A2 3.24214e-06
5 *1415:B *1006:8 0
6 *1415:B *1011:10 0
7 *223:12 *1415:B 0
*RES
1 *1414:Y *532:8 36.0045 
2 *532:8 *1415:B 48.4791 
*END

*D_NET *533 3.02544e-05
*CONN
*I *1417:B I *D OA21x2_ASAP7_75t_R
*I *1416:Y O *D NAND2x1_ASAP7_75t_R
*CAP
1 *1417:B 0
2 *1416:Y 1.34539e-05
3 *533:10 1.34539e-05
4 *533:10 *1421:A2 5.51397e-07
5 *533:10 *1018:64 2.79508e-06
*RES
1 *1416:Y *533:10 43.8888 
2 *533:10 *1417:B 34.4 
*END

*D_NET *534 9.75538e-05
*CONN
*I *1419:B I *D AOI21x1_ASAP7_75t_R
*I *1418:Y O *D NOR2x2_ASAP7_75t_R
*CAP
1 *1419:B 0
2 *1418:Y 0
3 *534:10 3.79998e-05
4 *534:6 3.79998e-05
5 *534:10 *831:34 0
6 *534:10 *835:10 3.05118e-08
7 *534:10 *1081:18 3.95007e-06
8 *534:10 *1081:42 1.22987e-05
9 *534:10 *1081:71 1.84268e-06
10 *534:10 *1089:10 1.94636e-06
11 *223:10 *534:10 0
12 *223:12 *534:10 0
13 *287:42 *534:10 1.48586e-06
*RES
1 *1418:Y *534:6 34.4 
2 *534:6 *534:10 47.0478 
3 *534:10 *1419:B 17.2 
*END

*D_NET *535 2.09089e-05
*CONN
*I *1421:B I *D OA21x2_ASAP7_75t_R
*I *1420:Y O *D NAND2x1_ASAP7_75t_R
*CAP
1 *1421:B 0
2 *1420:Y 8.31054e-06
3 *535:8 8.31054e-06
4 *535:8 *761:18 0
5 *535:8 *1018:26 4.28784e-06
6 *19:12 *535:8 0
*RES
1 *1420:Y *535:8 40.0317 
2 *535:8 *1421:B 34.4 
*END

*D_NET *536 2.62037e-05
*CONN
*I *1423:B I *D AOI21x1_ASAP7_75t_R
*I *1422:Y O *D NOR2x2_ASAP7_75t_R
*CAP
1 *1423:B 1.00953e-05
2 *1422:Y 1.00953e-05
3 *1423:B *1423:A2 6.01313e-06
*RES
1 *1422:Y *1423:B 39.2134 
*END

*D_NET *537 1.64143e-05
*CONN
*I *1425:B I *D AOI21x1_ASAP7_75t_R
*I *1424:Y O *D NOR2x2_ASAP7_75t_R
*CAP
1 *1425:B 0
2 *1424:Y 5.38392e-06
3 *537:8 5.38392e-06
4 *198:10 *537:8 5.64641e-06
5 *472:10 *537:8 0
*RES
1 *1424:Y *537:8 38.9053 
2 *537:8 *1425:B 34.4 
*END

*D_NET *538 3.25137e-05
*CONN
*I *1427:B I *D AOI21x1_ASAP7_75t_R
*I *1426:Y O *D NOR2x2_ASAP7_75t_R
*CAP
1 *1427:B 0
2 *1426:Y 1.24833e-05
3 *538:10 1.24833e-05
4 *538:10 *1112:21 7.54709e-06
*RES
1 *1426:Y *538:10 43.7754 
2 *538:10 *1427:B 34.4 
*END

*D_NET *539 0.000107095
*CONN
*I *1429:B I *D AOI21x1_ASAP7_75t_R
*I *1428:Y O *D NOR2x2_ASAP7_75t_R
*CAP
1 *1429:B 0
2 *1428:Y 3.43852e-05
3 *539:6 3.43852e-05
4 *539:6 *1429:A1 8.87763e-06
5 *539:6 *1432:B 8.87763e-06
6 *539:6 *806:8 2.14755e-06
7 *1432:A2 *539:6 1.7743e-05
8 *264:23 *539:6 6.7842e-07
*RES
1 *1428:Y *539:6 40.1975 
2 *539:6 *1429:B 17.2 
*END

*D_NET *540 0.000165214
*CONN
*I *1431:C I *D OR3x1_ASAP7_75t_R
*I *1430:Y O *D OAI21x1_ASAP7_75t_R
*CAP
1 *1431:C 0
2 *1430:Y 0
3 *540:12 9.25769e-06
4 *540:6 6.28594e-05
5 *540:4 5.36017e-05
6 *540:12 *541:8 6.49127e-06
7 *2057:A *540:12 0
8 *230:10 *540:12 1.09842e-06
9 *263:10 *540:12 0
10 *263:23 *540:6 2.16348e-05
11 *265:8 *540:6 2.12481e-06
12 *266:8 *540:6 8.146e-06
*RES
1 *1430:Y *540:4 17.2 
2 *540:4 *540:6 35.8333 
3 *540:6 *540:12 41.158 
4 *540:12 *1431:C 17.2 
*END

*D_NET *541 9.62707e-05
*CONN
*I *1432:B I *D OA21x2_ASAP7_75t_R
*I *1431:Y O *D OR3x1_ASAP7_75t_R
*CAP
1 *1432:B 1.125e-06
2 *1431:Y 1.52173e-05
3 *541:8 1.63423e-05
4 *1432:B *806:8 3.81627e-06
5 *541:8 *1112:86 0
6 *1432:A2 *541:8 0
7 *230:10 *541:8 4.44009e-05
8 *539:6 *1432:B 8.87763e-06
9 *540:12 *541:8 6.49127e-06
*RES
1 *1431:Y *541:8 49.6055 
2 *541:8 *1432:B 37.0741 
*END

*D_NET *542 0.000103066
*CONN
*I *1434:B I *D AO21x1_ASAP7_75t_R
*I *1433:Y O *D AND2x2_ASAP7_75t_R
*CAP
1 *1434:B 0
2 *1433:Y 0
3 *542:12 3.399e-05
4 *542:6 3.399e-05
5 *542:12 *1200:A 3.89037e-06
6 *542:12 *1434:A1 2.78893e-06
7 *542:12 *721:24 2.21652e-06
8 *542:12 *884:29 2.29213e-06
9 *65:21 *542:12 1.70317e-06
10 *393:14 *542:12 2.21948e-05
*RES
1 *1433:Y *542:6 34.4 
2 *542:6 *542:12 46.428 
3 *542:12 *1434:B 17.2 
*END

*D_NET *543 3.061e-05
*CONN
*I *1436:A2 I *D OA21x2_ASAP7_75t_R
*I *1435:Y O *D OA21x2_ASAP7_75t_R
*CAP
1 *1436:A2 1.5305e-05
2 *1435:Y 1.5305e-05
*RES
1 *1435:Y *1436:A2 42.9572 
*END

*D_NET *544 9.47103e-05
*CONN
*I *1441:A2 I *D OA21x2_ASAP7_75t_R
*I *1436:Y O *D OA21x2_ASAP7_75t_R
*CAP
1 *1441:A2 1.45107e-05
2 *1436:Y 1.179e-05
3 *544:8 2.63007e-05
4 *1441:A2 *1441:B 1.52651e-06
5 *1441:A2 *560:10 3.84928e-05
6 *1441:A2 *562:14 0
7 *1436:B *544:8 2.0895e-06
8 *180:8 *1441:A2 0
9 *181:23 *1441:A2 0
*RES
1 *1436:Y *544:8 39.2134 
2 *544:8 *1441:A2 48.4225 
*END

*D_NET *545 0.000131644
*CONN
*I *1443:A I *D NOR2x1_ASAP7_75t_R
*I *1440:A1 I *D OA21x2_ASAP7_75t_R
*I *1437:Y O *D OR4x1_ASAP7_75t_R
*CAP
1 *1443:A 1.0545e-05
2 *1440:A1 1.00022e-05
3 *1437:Y 4.1011e-06
4 *545:8 2.46483e-05
5 *1440:A1 *1440:A2 1.04475e-06
6 *1440:A1 *564:22 2.64778e-05
7 *1443:A *551:6 1.01102e-06
8 *545:8 *564:22 1.31716e-05
9 *205:8 *1443:A 3.3547e-05
10 *245:18 *1440:A1 5.96584e-06
11 *245:18 *545:8 1.12894e-06
*RES
1 *1437:Y *545:8 38.9053 
2 *545:8 *1440:A1 45.0151 
3 *545:8 *1443:A 44.5617 
*END

*D_NET *546 2.37178e-05
*CONN
*I *1439:A1 I *D OA21x2_ASAP7_75t_R
*I *1438:Y O *D INVx1_ASAP7_75t_R
*CAP
1 *1439:A1 1.18589e-05
2 *1438:Y 1.18589e-05
*RES
1 *1438:Y *1439:A1 39.7482 
*END

*D_NET *547 0.00017488
*CONN
*I *1440:A2 I *D OA21x2_ASAP7_75t_R
*I *1439:Y O *D OA21x2_ASAP7_75t_R
*CAP
1 *1440:A2 3.24735e-05
2 *1439:Y 3.71791e-07
3 *547:18 3.46247e-05
4 *547:12 4.6737e-05
5 *547:8 4.49576e-05
6 *1440:A2 *550:6 2.79435e-06
7 *547:12 *556:66 0
8 *547:18 *807:8 7.84772e-07
9 *1440:A1 *1440:A2 1.04475e-06
10 *1467:A2 *1440:A2 2.03526e-06
11 *98:50 *547:12 1.35259e-06
12 *101:12 *547:8 7.84772e-07
13 *203:8 *547:18 4.88445e-06
14 *336:12 *547:8 2.03413e-06
*RES
1 *1439:Y *547:8 35.057 
2 *547:8 *547:12 34.515 
3 *547:12 *547:18 36.1834 
4 *547:18 *1440:A2 36.9885 
*END

*D_NET *548 7.01742e-05
*CONN
*I *1441:B I *D OA21x2_ASAP7_75t_R
*I *1440:Y O *D OA21x2_ASAP7_75t_R
*CAP
1 *1441:B 8.09886e-06
2 *1440:Y 1.2322e-05
3 *548:10 2.04209e-05
4 *1441:B *551:6 1.11189e-05
5 *548:10 *560:10 5.67747e-07
6 *1441:A1 *1441:B 2.0895e-06
7 *1441:A2 *1441:B 1.52651e-06
8 *60:25 *548:10 8.87763e-06
9 *60:31 *548:10 5.15215e-06
*RES
1 *1440:Y *548:10 43.8321 
2 *548:10 *1441:B 42.4224 
*END

*D_NET *549 6.61853e-05
*CONN
*I *1449:A2 I *D OAI21x1_ASAP7_75t_R
*I *1448:A1 I *D OA21x2_ASAP7_75t_R
*I *1441:Y O *D OA21x2_ASAP7_75t_R
*CAP
1 *1449:A2 0
2 *1448:A1 0
3 *1441:Y 1.00678e-05
4 *549:19 1.22573e-05
5 *549:6 2.23251e-05
6 *549:6 *551:6 0
7 *549:19 *551:6 0
8 *549:19 *555:22 1.67873e-05
9 *549:19 *872:31 4.74778e-06
*RES
1 *1441:Y *549:6 21.4786 
2 *549:6 *1448:A1 17.2 
3 *549:6 *549:19 43.2406 
4 *549:19 *1449:A2 17.2 
*END

*D_NET *550 0.000143995
*CONN
*I *1443:B I *D NOR2x1_ASAP7_75t_R
*I *1442:Y O *D OR3x1_ASAP7_75t_R
*CAP
1 *1443:B 0
2 *1442:Y 5.4851e-05
3 *550:12 6.6412e-06
4 *550:6 6.14922e-05
5 *550:6 *1467:A1 3.89037e-06
6 *1440:A2 *550:6 2.79435e-06
7 *1467:A2 *550:6 1.34888e-05
8 *203:23 *550:12 0
9 *245:18 *550:12 8.3668e-07
*RES
1 *1442:Y *550:6 43.4064 
2 *550:6 *550:12 38.9053 
3 *550:12 *1443:B 17.2 
*END

*D_NET *551 0.00028079
*CONN
*I *1447:A2 I *D OA21x2_ASAP7_75t_R
*I *1444:C I *D OR3x1_ASAP7_75t_R
*I *1443:Y O *D NOR2x1_ASAP7_75t_R
*CAP
1 *1447:A2 1.72273e-05
2 *1444:C 1.8753e-05
3 *1443:Y 0
4 *551:8 3.59803e-05
5 *551:6 8.11783e-05
6 *551:4 8.11783e-05
7 *1444:C *552:8 0
8 *1444:C *556:8 2.54626e-07
9 *1444:C *556:116 0
10 *1444:C *562:14 0
11 *1447:A2 *1447:A1 5.34278e-06
12 *1447:A2 *552:8 0
13 *1447:A2 *552:20 6.33206e-07
14 *1447:A2 *555:6 1.43369e-05
15 *1447:A2 *556:8 2.54626e-07
16 *1447:A2 *562:14 0
17 *551:6 *552:20 5.22376e-07
18 *551:6 *555:22 2.28976e-06
19 *1441:B *551:6 1.11189e-05
20 *1443:A *551:6 1.01102e-06
21 *1444:B *1444:C 3.05302e-06
22 *59:12 *551:6 5.0551e-07
23 *61:10 *551:6 5.41446e-06
24 *98:20 *1444:C 2.90209e-08
25 *98:34 *1444:C 1.70708e-06
26 *205:8 *551:6 0
27 *549:6 *551:6 0
28 *549:19 *551:6 0
*RES
1 *1443:Y *551:4 17.2 
2 *551:4 *551:6 37.9726 
3 *551:6 *551:8 17.2 
4 *551:8 *1444:C 45.4933 
5 *551:8 *1447:A2 49.5735 
*END

*D_NET *552 0.000129197
*CONN
*I *1449:A1 I *D OAI21x1_ASAP7_75t_R
*I *1448:A2 I *D OA21x2_ASAP7_75t_R
*I *1444:Y O *D OR3x1_ASAP7_75t_R
*CAP
1 *1449:A1 0
2 *1448:A2 0
3 *1444:Y 1.90041e-05
4 *552:20 8.99407e-06
5 *552:12 2.19866e-05
6 *552:8 3.19967e-05
7 *552:8 *553:18 0
8 *552:8 *555:14 1.09067e-06
9 *552:8 *556:8 4.74375e-07
10 *552:8 *556:116 6.55296e-06
11 *552:12 *555:14 5.09299e-06
12 *552:20 *555:14 3.32579e-06
13 *552:20 *555:22 2.95234e-05
14 *1444:C *552:8 0
15 *1447:A2 *552:8 0
16 *1447:A2 *552:20 6.33206e-07
17 *239:30 *552:8 0
18 *551:6 *552:20 5.22376e-07
*RES
1 *1444:Y *552:8 48.4791 
2 *552:8 *552:12 25.2224 
3 *552:12 *552:20 44.4236 
4 *552:20 *1448:A2 17.2 
5 *552:12 *1449:A1 17.2 
*END

*D_NET *553 0.000123693
*CONN
*I *1447:A1 I *D OA21x2_ASAP7_75t_R
*I *1445:Y O *D AO21x1_ASAP7_75t_R
*CAP
1 *1447:A1 7.68005e-06
2 *1445:Y 9.55014e-06
3 *553:18 2.03439e-05
4 *553:10 2.2214e-05
5 *1447:A1 *1447:B 6.7842e-07
6 *1447:A1 *555:6 7.58265e-07
7 *553:10 *721:24 0
8 *553:18 *554:18 2.89779e-05
9 *553:18 *558:10 0
10 *1447:A2 *1447:A1 5.34278e-06
11 *95:8 *553:10 3.40662e-06
12 *98:16 *553:18 9.828e-06
13 *238:27 *553:10 1.42799e-05
14 *239:30 *553:18 6.33206e-07
15 *552:8 *553:18 0
*RES
1 *1445:Y *553:10 41.776 
2 *553:10 *553:18 42.0846 
3 *553:18 *1447:A1 40.2831 
*END

*D_NET *554 0.000158949
*CONN
*I *1447:B I *D OA21x2_ASAP7_75t_R
*I *1446:Y O *D NAND2x1_ASAP7_75t_R
*CAP
1 *1447:B 3.05306e-06
2 *1446:Y 5.2388e-06
3 *554:18 3.97707e-05
4 *554:10 4.19564e-05
5 *1447:B *555:6 3.73144e-06
6 *554:10 *649:8 1.38864e-06
7 *1447:A1 *1447:B 6.7842e-07
8 *98:16 *554:18 3.12441e-06
9 *237:28 *554:18 0
10 *238:12 *554:10 1.35697e-05
11 *239:10 *554:10 0
12 *239:14 *554:10 7.94773e-06
13 *239:24 *554:10 8.83367e-06
14 *239:30 *1447:B 6.7842e-07
15 *553:18 *554:18 2.89779e-05
*RES
1 *1446:Y *554:10 39.7394 
2 *554:10 *554:18 46.5282 
3 *554:18 *1447:B 37.0741 
*END

*D_NET *555 0.000194868
*CONN
*I *1449:B I *D OAI21x1_ASAP7_75t_R
*I *1448:B I *D OA21x2_ASAP7_75t_R
*I *1447:Y O *D OA21x2_ASAP7_75t_R
*CAP
1 *1449:B 0
2 *1448:B 0
3 *1447:Y 3.11799e-05
4 *555:22 8.83276e-06
5 *555:14 2.63013e-05
6 *555:6 4.86485e-05
7 *555:22 *562:14 0
8 *555:22 *872:31 2.19685e-06
9 *1447:A1 *555:6 7.58265e-07
10 *1447:A2 *555:6 1.43369e-05
11 *1447:B *555:6 3.73144e-06
12 *239:30 *555:6 7.72307e-07
13 *549:19 *555:22 1.67873e-05
14 *551:6 *555:22 2.28976e-06
15 *552:8 *555:14 1.09067e-06
16 *552:12 *555:14 5.09299e-06
17 *552:20 *555:14 3.32579e-06
18 *552:20 *555:22 2.95234e-05
*RES
1 *1447:Y *555:6 33.7796 
2 *555:6 *555:14 47.0977 
3 *555:14 *555:22 47.2678 
4 *555:22 *1448:B 17.2 
5 *555:14 *1449:B 17.2 
*END

*D_NET *556 0.000817384
*CONN
*I *1602:A1 I *D OA21x2_ASAP7_75t_R
*I *1451:A2 I *D OA21x2_ASAP7_75t_R
*I *1459:A1 I *D OA21x2_ASAP7_75t_R
*I *1463:A1 I *D OA21x2_ASAP7_75t_R
*I *1471:A1 I *D OA21x2_ASAP7_75t_R
*I *1473:A2 I *D OA21x2_ASAP7_75t_R
*I *1467:A1 I *D OA21x2_ASAP7_75t_R
*I *1455:A1 I *D OA21x2_ASAP7_75t_R
*I *1448:Y O *D OA21x2_ASAP7_75t_R
*CAP
1 *1602:A1 4.35392e-06
2 *1451:A2 0
3 *1459:A1 0
4 *1463:A1 0
5 *1471:A1 0
6 *1473:A2 0
7 *1467:A1 1.74264e-06
8 *1455:A1 4.36061e-06
9 *1448:Y 3.75635e-06
10 *556:124 4.55962e-06
11 *556:118 5.32423e-05
12 *556:116 6.69988e-05
13 *556:93 1.16441e-06
14 *556:82 1.719e-06
15 *556:76 6.78849e-05
16 *556:66 0.000142551
17 *556:51 0.000130721
18 *556:45 5.37576e-05
19 *556:43 3.19545e-05
20 *556:24 5.84008e-05
21 *556:18 2.20857e-05
22 *556:16 4.56546e-05
23 *556:10 6.83246e-05
24 *556:8 3.75635e-06
25 *1455:A1 *560:10 4.30517e-07
26 *556:16 *560:10 3.05118e-08
27 *556:16 *872:25 1.24672e-08
28 *556:24 *560:10 5.52666e-06
29 *556:51 *1467:B 0
30 *556:51 *807:8 0
31 *556:66 *1467:B 0
32 *556:66 *557:42 0
33 *556:66 *557:52 0
34 *556:76 *557:52 0
35 *556:82 *569:14 0
36 *556:93 *1088:12 6.40127e-07
37 *556:124 *721:24 5.66897e-06
38 *1361:B *556:66 0
39 *1444:B *556:118 7.86466e-06
40 *1444:C *556:8 2.54626e-07
41 *1444:C *556:116 0
42 *1447:A2 *556:8 2.54626e-07
43 *1642:A *556:124 1.09842e-06
44 *1642:B *556:118 1.01102e-06
45 *60:25 *556:16 7.67052e-06
46 *60:25 *556:24 0
47 *96:10 *556:124 1.64764e-06
48 *97:10 *556:118 5.51397e-07
49 *98:34 *556:16 1.85657e-06
50 *98:50 *556:66 1.10955e-07
51 *101:22 *556:51 0
52 *181:10 *556:16 3.05118e-08
53 *181:23 *556:16 4.3436e-06
54 *203:8 *556:43 0
55 *239:30 *556:116 0
56 *245:12 *556:43 4.74168e-07
57 *336:33 *556:51 0
58 *547:12 *556:66 0
59 *550:6 *1467:A1 3.89037e-06
60 *552:8 *556:8 4.74375e-07
61 *552:8 *556:116 6.55296e-06
*RES
1 *1448:Y *556:8 35.9956 
2 *556:8 *556:10 17.2 
3 *556:10 *556:16 36.0001 
4 *556:16 *556:18 17.2 
5 *556:18 *556:24 28.2454 
6 *556:24 *1455:A1 36.5021 
7 *556:24 *556:43 48.39 
8 *556:43 *556:45 17.2 
9 *556:45 *556:51 48.1385 
10 *556:51 *1467:A1 35.4697 
11 *556:51 *556:66 48.1339 
12 *556:66 *556:76 45.7261 
13 *556:76 *556:82 35.4325 
14 *556:82 *1473:A2 17.2 
15 *556:66 *556:93 35.2447 
16 *556:93 *1471:A1 17.2 
17 *556:45 *1463:A1 17.2 
18 *556:18 *1459:A1 17.2 
19 *556:10 *556:116 45.4083 
20 *556:116 *556:118 20.8582 
21 *556:118 *556:124 38.9053 
22 *556:124 *1451:A2 17.2 
23 *556:118 *1602:A1 19.3393 
*END

*D_NET *557 0.000671183
*CONN
*I *1450:C I *D OR3x1_ASAP7_75t_R
*I *1601:B I *D OR3x1_ASAP7_75t_R
*I *1458:C I *D OR3x1_ASAP7_75t_R
*I *1454:C I *D OR3x1_ASAP7_75t_R
*I *1462:C I *D OR3x1_ASAP7_75t_R
*I *1466:B I *D OR3x1_ASAP7_75t_R
*I *1470:B I *D OR3x1_ASAP7_75t_R
*I *1472:A I *D OR3x1_ASAP7_75t_R
*I *1449:Y O *D OAI21x1_ASAP7_75t_R
*CAP
1 *1450:C 0
2 *1601:B 0
3 *1458:C 0
4 *1454:C 0
5 *1462:C 0
6 *1466:B 0
7 *1470:B 0
8 *1472:A 0
9 *1449:Y 5.14025e-06
10 *557:126 9.19768e-06
11 *557:118 3.06535e-05
12 *557:110 3.10807e-05
13 *557:106 4.19277e-05
14 *557:86 8.78196e-06
15 *557:63 1.56659e-06
16 *557:52 2.48207e-05
17 *557:42 6.18438e-05
18 *557:40 3.88653e-05
19 *557:32 1.70078e-05
20 *557:30 2.78477e-05
21 *557:26 6.15769e-05
22 *557:22 7.99635e-05
23 *557:12 2.80656e-05
24 *557:8 4.16552e-05
25 *557:8 *562:14 9.8079e-06
26 *557:8 *872:31 5.38904e-07
27 *557:12 *562:8 2.20493e-06
28 *557:22 *560:10 5.37866e-07
29 *557:26 *564:16 0
30 *557:32 *566:8 1.1364e-05
31 *557:52 *569:8 7.35354e-06
32 *557:86 *560:10 0
33 *557:106 *729:36 0
34 *557:106 *872:25 0
35 *557:118 *1315:A 0
36 *557:118 *558:10 3.95845e-06
37 *557:126 *1315:A 1.15587e-05
38 *557:126 *558:10 1.34466e-06
39 *557:126 *721:30 5.17782e-06
40 *1162:A *557:52 2.25196e-06
41 *1162:B *557:63 0
42 *1172:A *557:118 5.52652e-06
43 *1172:B *557:106 2.78959e-06
44 *1172:B *557:118 2.28976e-06
45 *1315:B *557:110 5.19552e-07
46 *1350:A *557:30 2.9937e-06
47 *1361:A *557:40 2.19448e-07
48 *1361:B *557:40 2.516e-06
49 *1450:B *557:110 2.03526e-06
50 *1458:A *557:22 6.33018e-06
51 *1462:A *557:30 3.90551e-06
52 *1462:B *557:30 5.06565e-06
53 *1462:B *557:32 2.96818e-06
54 *1472:C *557:52 1.36155e-06
55 *59:12 *557:86 0
56 *180:8 *557:8 6.94376e-06
57 *180:8 *557:22 5.41674e-06
58 *333:12 *557:63 0
59 *371:18 *557:26 0
60 *371:72 *557:22 0
61 *371:72 *557:26 0
62 *371:72 *557:106 0
63 *373:12 *557:30 9.91658e-06
64 *373:33 *557:42 1.37029e-05
65 *373:33 *557:52 8.09972e-06
66 *471:12 *557:126 1.52651e-06
67 *482:14 *557:12 1.47071e-05
68 *482:14 *557:22 3.89037e-06
69 *482:24 *557:22 1.26641e-06
70 *483:8 *557:30 1.09842e-06
71 *556:66 *557:42 0
72 *556:66 *557:52 0
73 *556:76 *557:52 0
*RES
1 *1449:Y *557:8 40.0317 
2 *557:8 *557:12 21.4786 
3 *557:12 *557:22 46.1578 
4 *557:22 *557:26 37.7616 
5 *557:26 *557:30 30.059 
6 *557:30 *557:32 11.7662 
7 *557:32 *557:40 36.3144 
8 *557:40 *557:42 18.6137 
9 *557:42 *557:52 45.6087 
10 *557:52 *1472:A 17.2 
11 *557:42 *557:63 35.2447 
12 *557:63 *1470:B 17.2 
13 *557:32 *1466:B 17.2 
14 *557:30 *1462:C 17.2 
15 *557:22 *557:86 39.5057 
16 *557:86 *1454:C 17.2 
17 *557:12 *1458:C 17.2 
18 *557:8 *557:106 48.8516 
19 *557:106 *557:110 22.0134 
20 *557:110 *557:118 45.8581 
21 *557:118 *557:126 43.1556 
22 *557:126 *1601:B 17.2 
23 *557:110 *1450:C 17.2 
*END

*D_NET *558 0.000159519
*CONN
*I *1451:B I *D OA21x2_ASAP7_75t_R
*I *1450:Y O *D OR3x1_ASAP7_75t_R
*CAP
1 *1451:B 1.82009e-05
2 *1450:Y 0
3 *558:10 5.81293e-05
4 *558:6 3.99285e-05
5 *558:10 *1315:A 0
6 *1172:B *558:10 0
7 *1642:A *558:10 0
8 *95:8 *558:10 6.76305e-06
9 *96:10 *558:10 0
10 *97:10 *558:10 2.9011e-05
11 *239:30 *558:10 2.18304e-06
12 *553:18 *558:10 0
13 *557:118 *558:10 3.95845e-06
14 *557:126 *558:10 1.34466e-06
*RES
1 *1450:Y *558:6 34.4 
2 *558:6 *558:10 49.3005 
3 *558:10 *1451:B 27.8965 
*END

*D_NET *559 2.79512e-05
*CONN
*I *1453:B I *D AO21x1_ASAP7_75t_R
*I *1452:Y O *D AND2x2_ASAP7_75t_R
*CAP
1 *1453:B 4.71376e-06
2 *1452:Y 6.87268e-06
3 *559:8 1.15864e-05
4 *559:8 *964:8 0
5 *60:8 *1453:B 2.61188e-06
6 *181:10 *559:8 2.1664e-06
*RES
1 *1452:Y *559:8 40.0317 
2 *559:8 *1453:B 37.609 
*END

*D_NET *560 0.000262302
*CONN
*I *1455:B I *D OA21x2_ASAP7_75t_R
*I *1454:Y O *D OR3x1_ASAP7_75t_R
*CAP
1 *1455:B 0
2 *1454:Y 4.99025e-06
3 *560:18 1.18884e-05
4 *560:10 5.8345e-05
5 *560:8 5.14468e-05
6 *1441:A2 *560:10 3.84928e-05
7 *1455:A1 *560:10 4.30517e-07
8 *1455:A2 *560:18 2.90209e-08
9 *1458:A *560:10 1.12894e-06
10 *60:10 *560:10 1.19507e-05
11 *60:10 *560:18 1.67815e-06
12 *60:25 *560:10 2.83939e-05
13 *61:10 *560:10 0
14 *62:10 *560:10 1.70866e-06
15 *180:8 *560:10 0
16 *181:10 *560:18 3.6269e-06
17 *181:23 *560:10 0
18 *182:8 *560:10 3.37021e-05
19 *482:24 *560:10 7.82691e-06
20 *548:10 *560:10 5.67747e-07
21 *556:16 *560:10 3.05118e-08
22 *556:24 *560:10 5.52666e-06
23 *557:22 *560:10 5.37866e-07
24 *557:86 *560:10 0
*RES
1 *1454:Y *560:8 37.0741 
2 *560:8 *560:10 46.1796 
3 *560:10 *560:18 42.0293 
4 *560:18 *1455:B 34.4 
*END

*D_NET *561 2.64372e-05
*CONN
*I *1457:B I *D AO21x1_ASAP7_75t_R
*I *1456:Y O *D AND2x2_ASAP7_75t_R
*CAP
1 *1457:B 0
2 *1456:Y 4.8612e-06
3 *561:8 4.8612e-06
4 *561:8 *754:18 1.67148e-05
*RES
1 *1456:Y *561:8 40.0317 
2 *561:8 *1457:B 34.4 
*END

*D_NET *562 0.000103717
*CONN
*I *1459:B I *D OA21x2_ASAP7_75t_R
*I *1458:Y O *D OR3x1_ASAP7_75t_R
*CAP
1 *1459:B 0
2 *1458:Y 6.29406e-06
3 *562:14 2.78728e-05
4 *562:8 3.41668e-05
5 *562:14 *872:31 1.41659e-05
6 *1441:A2 *562:14 0
7 *1444:C *562:14 0
8 *1447:A2 *562:14 0
9 *181:23 *562:14 9.20479e-06
10 *555:22 *562:14 0
11 *557:8 *562:14 9.8079e-06
12 *557:12 *562:8 2.20493e-06
*RES
1 *1458:Y *562:8 37.0741 
2 *562:8 *562:14 42.4574 
3 *562:14 *1459:B 17.2 
*END

*D_NET *563 3.25588e-05
*CONN
*I *1461:B I *D AO21x1_ASAP7_75t_R
*I *1460:Y O *D AND2x2_ASAP7_75t_R
*CAP
1 *1461:B 2.06342e-06
2 *1460:Y 5.18014e-06
3 *563:8 7.24355e-06
4 *1461:A2 *1461:B 1.35684e-06
5 *386:14 *563:8 1.67148e-05
*RES
1 *1460:Y *563:8 40.0317 
2 *563:8 *1461:B 35.4697 
*END

*D_NET *564 0.000188206
*CONN
*I *1463:B I *D OA21x2_ASAP7_75t_R
*I *1462:Y O *D OR3x1_ASAP7_75t_R
*CAP
1 *1463:B 0
2 *1462:Y 2.18414e-05
3 *564:22 2.98786e-05
4 *564:16 4.55929e-05
5 *564:10 3.75557e-05
6 *1437:D *564:22 9.94583e-06
7 *1440:A1 *564:22 2.64778e-05
8 *59:12 *564:22 7.17155e-07
9 *61:10 *564:22 0
10 *245:12 *564:22 9.11435e-07
11 *245:18 *564:22 2.11361e-06
12 *545:8 *564:22 1.31716e-05
13 *557:26 *564:16 0
*RES
1 *1462:Y *564:10 47.358 
2 *564:10 *564:16 39.3781 
3 *564:16 *564:22 42.3636 
4 *564:22 *1463:B 17.2 
*END

*D_NET *565 3.89311e-05
*CONN
*I *1465:B I *D AO21x1_ASAP7_75t_R
*I *1464:Y O *D AND2x2_ASAP7_75t_R
*CAP
1 *1465:B 9.75675e-06
2 *1464:Y 9.75675e-06
3 *1465:B *1465:A1 1.25483e-05
4 *385:6 *1465:B 6.86929e-06
*RES
1 *1464:Y *1465:B 42.9572 
*END

*D_NET *566 8.70291e-05
*CONN
*I *1467:B I *D OA21x2_ASAP7_75t_R
*I *1466:Y O *D OR3x1_ASAP7_75t_R
*CAP
1 *1467:B 2.32964e-05
2 *1466:Y 1.42673e-05
3 *566:8 3.75636e-05
4 *1361:A *1467:B 0
5 *203:8 *1467:B 0
6 *203:23 *1467:B 0
7 *204:14 *1467:B 5.37866e-07
8 *556:51 *1467:B 0
9 *556:66 *1467:B 0
10 *557:32 *566:8 1.1364e-05
*RES
1 *1466:Y *566:8 42.4224 
2 *566:8 *1467:B 49.6055 
*END

*D_NET *567 5.60374e-05
*CONN
*I *1469:B I *D AO21x1_ASAP7_75t_R
*I *1468:Y O *D AND2x2_ASAP7_75t_R
*CAP
1 *1469:B 4.26671e-06
2 *1468:Y 2.10442e-05
3 *567:8 2.53109e-05
4 *567:8 *749:21 0
5 *101:6 *1469:B 1.56713e-06
6 *170:10 *567:8 0
7 *334:10 *1469:B 2.20493e-06
8 *398:87 *567:8 1.64348e-06
*RES
1 *1468:Y *567:8 48.4791 
2 *567:8 *1469:B 37.609 
*END

*D_NET *568 3.14791e-05
*CONN
*I *1471:B I *D OA21x2_ASAP7_75t_R
*I *1470:Y O *D OR3x1_ASAP7_75t_R
*CAP
1 *1471:B 0
2 *1470:Y 1.41272e-05
3 *568:10 1.41272e-05
4 *568:10 *837:14 0
5 *1162:B *568:10 0
6 *1339:A *568:10 1.59615e-06
7 *333:12 *568:10 1.62854e-06
*RES
1 *1470:Y *568:10 43.8321 
2 *568:10 *1471:B 34.4 
*END

*D_NET *569 0.00015909
*CONN
*I *1473:B I *D OA21x2_ASAP7_75t_R
*I *1472:Y O *D OR3x1_ASAP7_75t_R
*CAP
1 *1473:B 0
2 *1472:Y 1.48093e-05
3 *569:14 4.69955e-05
4 *569:8 6.18048e-05
5 *569:14 *836:10 1.48593e-05
6 *569:14 *990:8 0
7 *569:14 *991:8 0
8 *1162:A *569:14 6.48455e-06
9 *1472:B *569:8 2.20493e-06
10 *1472:C *569:8 1.07377e-06
11 *99:16 *569:14 3.50469e-06
12 *556:82 *569:14 0
13 *557:52 *569:8 7.35354e-06
*RES
1 *1472:Y *569:8 43.492 
2 *569:8 *569:14 47.8057 
3 *569:14 *1473:B 17.2 
*END

*D_NET *570 5.04769e-05
*CONN
*I *1476:B I *D AO21x2_ASAP7_75t_R
*I *1475:Y O *D NOR2x1_ASAP7_75t_R
*CAP
1 *1476:B 0
2 *1475:Y 1.02241e-05
3 *570:10 1.02241e-05
4 *570:10 *1352:A 1.29755e-05
5 *570:10 *1475:B 7.63254e-07
6 *570:10 *690:25 7.92239e-06
7 *570:10 *1103:10 8.3676e-06
*RES
1 *1475:Y *570:10 44.9018 
2 *570:10 *1476:B 34.4 
*END

*D_NET *571 1.98104e-05
*CONN
*I *1478:A2 I *D OA21x2_ASAP7_75t_R
*I *1477:Y O *D INVx1_ASAP7_75t_R
*CAP
1 *1478:A2 0
2 *1477:Y 6.35791e-06
3 *571:8 6.35791e-06
4 *1478:B *571:8 7.09459e-06
5 *325:8 *571:8 0
6 *328:35 *571:8 0
*RES
1 *1477:Y *571:8 40.0317 
2 *571:8 *1478:A2 34.4 
*END

*D_NET *572 0.000198265
*CONN
*I *1479:A2 I *D OA21x2_ASAP7_75t_R
*I *1478:Y O *D OA21x2_ASAP7_75t_R
*CAP
1 *1479:A2 0
2 *1478:Y 6.22363e-05
3 *572:20 4.95304e-06
4 *572:14 2.61169e-05
5 *572:6 8.34001e-05
6 *572:6 *1483:A2 1.09492e-05
7 *572:14 *577:10 3.86483e-06
8 *572:20 *578:12 3.05118e-07
9 *1486:C *572:14 7.84037e-07
10 *219:10 *572:20 3.42646e-06
11 *222:23 *572:14 1.45645e-06
12 *328:22 *572:14 0
13 *328:35 *572:6 7.72307e-07
*RES
1 *1478:Y *572:6 43.4064 
2 *572:6 *572:14 42.0846 
3 *572:14 *572:20 38.0606 
4 *572:20 *1479:A2 17.2 
*END

*D_NET *573 8.66836e-05
*CONN
*I *1483:A2 I *D OAI21x1_ASAP7_75t_R
*I *1479:Y O *D OA21x2_ASAP7_75t_R
*CAP
1 *1483:A2 1.44851e-05
2 *1479:Y 4.35842e-06
3 *573:8 1.88435e-05
4 *1483:A2 *576:6 1.04475e-06
5 *1483:A2 *576:14 1.68781e-05
6 *1486:C *573:8 8.46363e-06
7 *219:10 *573:8 5.37866e-07
8 *221:8 *573:8 3.14843e-06
9 *222:23 *573:8 7.97464e-06
10 *572:6 *1483:A2 1.09492e-05
*RES
1 *1479:Y *573:8 40.0317 
2 *573:8 *1483:A2 45.6313 
*END

*D_NET *574 6.66336e-06
*CONN
*I *1481:A2 I *D OA211x2_ASAP7_75t_R
*I *1480:Y O *D OA21x2_ASAP7_75t_R
*CAP
1 *1481:A2 3.33168e-06
2 *1480:Y 3.33168e-06
*RES
1 *1480:Y *1481:A2 36.5393 
*END

*D_NET *575 9.42087e-05
*CONN
*I *1482:B I *D AND2x2_ASAP7_75t_R
*I *1487:B I *D NAND2x1_ASAP7_75t_R
*I *1481:Y O *D OA211x2_ASAP7_75t_R
*CAP
1 *1482:B 0
2 *1487:B 0
3 *1481:Y 8.14267e-06
4 *575:10 2.71943e-05
5 *575:6 3.5337e-05
6 *575:10 *1487:A 5.06565e-06
7 *575:10 *581:8 8.71771e-06
8 *206:8 *575:10 3.21276e-06
9 *208:8 *575:10 6.53854e-06
10 *220:8 *575:10 0
11 *487:10 *575:10 0
*RES
1 *1481:Y *575:6 20.9438 
2 *575:6 *575:10 39.7266 
3 *575:10 *1487:B 34.4 
4 *575:6 *1482:B 17.2 
*END

*D_NET *576 0.000125828
*CONN
*I *1483:B I *D OAI21x1_ASAP7_75t_R
*I *1482:Y O *D AND2x2_ASAP7_75t_R
*CAP
1 *1483:B 0
2 *1482:Y 3.84009e-05
3 *576:14 7.66574e-06
4 *576:6 4.60666e-05
5 *576:14 *577:10 5.51133e-06
6 *1483:A2 *576:6 1.04475e-06
7 *1483:A2 *576:14 1.68781e-05
8 *1486:C *576:14 8.46363e-06
9 *220:12 *576:6 1.79737e-06
*RES
1 *1482:Y *576:6 34.8492 
2 *576:6 *576:14 42.0293 
3 *576:14 *1483:B 17.2 
*END

*D_NET *577 0.000132634
*CONN
*I *1490:B2 I *D AO22x2_ASAP7_75t_R
*I *1489:B2 I *D AOI22x1_ASAP7_75t_R
*I *1483:Y O *D OAI21x1_ASAP7_75t_R
*CAP
1 *1490:B2 1.60727e-05
2 *1489:B2 3.27407e-06
3 *1483:Y 1.13655e-05
4 *577:10 3.07123e-05
5 *1490:B2 *1490:B1 2.83874e-07
6 *1490:B2 *582:18 1.53071e-05
7 *1490:B2 *1003:25 1.59615e-06
8 *1490:B2 *1083:6 1.95129e-06
9 *1490:B2 *1083:17 7.13384e-06
10 *577:10 *582:18 2.95528e-05
11 *1486:C *577:10 1.67815e-06
12 *219:10 *1490:B2 0
13 *222:23 *1490:B2 2.19685e-06
14 *222:23 *577:10 2.13335e-06
15 *572:14 *577:10 3.86483e-06
16 *576:14 *577:10 5.51133e-06
*RES
1 *1483:Y *577:10 46.1415 
2 *577:10 *1489:B2 36.0045 
3 *577:10 *1490:B2 48.3374 
*END

*D_NET *578 8.67879e-05
*CONN
*I *1488:A I *D AND3x1_ASAP7_75t_R
*I *1484:Y O *D INVx1_ASAP7_75t_R
*CAP
1 *1488:A 0
2 *1484:Y 5.86857e-06
3 *578:12 3.18035e-05
4 *578:8 3.76721e-05
5 *578:8 *1003:8 5.22376e-07
6 *578:12 *582:14 0
7 *578:12 *1108:8 4.40221e-06
8 *1486:C *578:12 0
9 *1486:D *578:12 0
10 *209:14 *578:12 0
11 *219:10 *578:12 0
12 *220:8 *578:12 3.25708e-06
13 *220:22 *578:12 2.95693e-06
14 *328:22 *578:12 0
15 *572:20 *578:12 3.05118e-07
*RES
1 *1484:Y *578:8 37.0741 
2 *578:8 *578:12 40.853 
3 *578:12 *1488:A 17.2 
*END

*D_NET *579 0.000173447
*CONN
*I *1486:A I *D OR5x1_ASAP7_75t_R
*I *2073:A I *D BUFx3_ASAP7_75t_R
*I *1485:Y O *D OR3x1_ASAP7_75t_R
*CAP
1 *1486:A 1.98504e-05
2 *2073:A 1.5462e-06
3 *1485:Y 5.0729e-05
4 *579:10 2.5388e-05
5 *579:6 5.47204e-05
6 *1485:B *579:6 1.27802e-05
7 *208:8 *2073:A 2.35211e-06
8 *208:8 *579:10 4.40256e-06
9 *220:8 *2073:A 5.49212e-07
10 *220:8 *579:10 1.12894e-06
*RES
1 *1485:Y *579:6 38.0582 
2 *579:6 *579:10 21.1422 
3 *579:10 *2073:A 36.0895 
4 *579:10 *1486:A 45.6313 
*END

*D_NET *580 7.65663e-05
*CONN
*I *1488:B I *D AND3x1_ASAP7_75t_R
*I *1486:Y O *D OR5x1_ASAP7_75t_R
*CAP
1 *1488:B 1.37909e-05
2 *1486:Y 4.77174e-06
3 *580:8 1.85626e-05
4 *1488:B *582:8 2.0895e-06
5 *1486:E *580:8 5.28609e-06
6 *209:8 *1488:B 2.09987e-05
7 *250:8 *1488:B 9.08513e-06
8 *326:12 *580:8 1.98156e-06
*RES
1 *1486:Y *580:8 38.9053 
2 *580:8 *1488:B 45.0965 
*END

*D_NET *581 0.000123436
*CONN
*I *1488:C I *D AND3x1_ASAP7_75t_R
*I *1487:Y O *D NAND2x1_ASAP7_75t_R
*CAP
1 *1488:C 7.33832e-06
2 *1487:Y 5.89934e-06
3 *581:14 3.75828e-05
4 *581:8 3.61438e-05
5 *1488:C *1108:8 0
6 *581:8 *1095:20 0
7 *581:14 *1510:B 5.94108e-06
8 *581:14 *1511:B 1.94746e-05
9 *581:14 *1095:20 1.51653e-06
10 *209:14 *1488:C 8.2174e-07
11 *220:8 *581:8 0
12 *575:10 *581:8 8.71771e-06
*RES
1 *1487:Y *581:8 40.5948 
2 *581:8 *581:14 49.9099 
3 *581:14 *1488:C 38.9053 
*END

*D_NET *582 0.000310404
*CONN
*I *1490:B1 I *D AO22x2_ASAP7_75t_R
*I *1960:A I *D BUFx3_ASAP7_75t_R
*I *1488:Y O *D AND3x1_ASAP7_75t_R
*CAP
1 *1490:B1 4.74212e-06
2 *1960:A 1.73081e-05
3 *1488:Y 6.73497e-06
4 *582:24 3.1678e-05
5 *582:18 2.69492e-05
6 *582:14 4.67596e-05
7 *582:8 3.61731e-05
8 *1490:B1 *1083:17 1.30409e-05
9 *1960:A *995:8 4.41312e-06
10 *1960:A *1083:17 4.83862e-06
11 *582:18 *1489:B1 8.67816e-06
12 *582:18 *1000:10 1.70866e-06
13 *582:18 *1083:17 5.37866e-07
14 *582:24 *995:8 0
15 *1486:C *582:14 1.12044e-05
16 *1486:D *582:14 1.62184e-05
17 *1486:E *582:14 1.65068e-05
18 *1488:B *582:8 2.0895e-06
19 *1490:B2 *1490:B1 2.83874e-07
20 *1490:B2 *582:18 1.53071e-05
21 *1692:B *582:14 6.33206e-07
22 *209:14 *582:14 1.50458e-05
23 *325:8 *582:18 0
24 *326:12 *582:14 0
25 *577:10 *582:18 2.95528e-05
26 *578:12 *582:14 0
*RES
1 *1488:Y *582:8 38.1438 
2 *582:8 *582:14 37.6687 
3 *582:14 *582:18 34.6581 
4 *582:18 *582:24 38.1438 
5 *582:24 *1960:A 46.2512 
6 *582:24 *1490:B1 38.9053 
*END

*D_NET *583 0.00108212
*CONN
*I *1515:A1 I *D OA21x2_ASAP7_75t_R
*I *1513:A1 I *D OA21x2_ASAP7_75t_R
*I *1509:A1 I *D OA21x2_ASAP7_75t_R
*I *1504:A1 I *D OA21x2_ASAP7_75t_R
*I *1598:A1 I *D OA21x2_ASAP7_75t_R
*I *1500:A1 I *D OA21x2_ASAP7_75t_R
*I *1492:A1 I *D OA21x2_ASAP7_75t_R
*I *1496:A1 I *D OA21x2_ASAP7_75t_R
*I *1489:Y O *D AOI22x1_ASAP7_75t_R
*CAP
1 *1515:A1 0
2 *1513:A1 0
3 *1509:A1 0
4 *1504:A1 0
5 *1598:A1 0
6 *1500:A1 0
7 *1492:A1 2.3243e-05
8 *1496:A1 0
9 *1489:Y 1.03941e-06
10 *583:141 1.52874e-05
11 *583:128 2.489e-06
12 *583:122 4.78602e-05
13 *583:115 1.44258e-05
14 *583:105 7.76575e-05
15 *583:68 2.32664e-05
16 *583:62 7.72011e-05
17 *583:58 4.02985e-05
18 *583:56 2.71886e-05
19 *583:48 3.0115e-05
20 *583:46 1.33325e-05
21 *583:42 8.28358e-06
22 *583:30 0.000120728
23 *583:20 0.000175064
24 *583:8 2.97121e-05
25 *1492:A1 *973:8 3.56738e-06
26 *1492:A1 *975:8 0
27 *583:20 *584:20 3.18707e-06
28 *583:20 *584:30 0
29 *583:30 *584:30 0
30 *583:42 *584:30 0
31 *583:42 *584:32 0
32 *583:46 *816:6 3.68287e-06
33 *583:48 *1598:B 4.04733e-05
34 *583:48 *816:6 7.552e-05
35 *583:48 *821:12 6.10603e-06
36 *583:56 *1500:B 2.27516e-05
37 *583:56 *816:6 1.86097e-05
38 *583:56 *820:8 0
39 *583:56 *821:12 9.84664e-06
40 *583:58 *818:8 0
41 *583:62 *1937:A 1.56713e-06
42 *583:62 *1939:A 3.13777e-05
43 *583:62 *818:8 0
44 *583:68 *973:8 5.90625e-06
45 *583:68 *974:8 6.54274e-06
46 *583:105 *584:20 0
47 *583:115 *584:129 3.19859e-05
48 *583:115 *593:10 2.52755e-07
49 *583:122 *584:16 0
50 *583:122 *584:129 4.89803e-05
51 *583:122 *595:18 5.87834e-07
52 *583:122 *1087:40 1.17278e-06
53 *583:141 *595:18 2.97516e-06
54 *583:141 *813:12 0
55 *583:141 *1087:40 2.25037e-06
56 *1365:B *583:115 1.55569e-06
57 *1500:A2 *583:58 1.56713e-06
58 *207:25 *583:42 2.19448e-07
59 *220:28 *583:105 0
60 *322:18 *583:68 2.57456e-06
61 *325:8 *583:8 7.4712e-07
62 *417:8 *583:128 2.13555e-06
63 *419:12 *583:128 0
64 *419:12 *583:141 1.23375e-05
65 *486:32 *583:30 1.64496e-05
*RES
1 *1489:Y *583:8 35.057 
2 *583:8 *583:20 48.149 
3 *583:20 *583:30 45.8756 
4 *583:30 *583:42 43.0964 
5 *583:42 *583:46 18.2696 
6 *583:46 *583:48 22.9975 
7 *583:48 *583:56 49.7719 
8 *583:56 *583:58 4.81343 
9 *583:58 *583:62 31.6403 
10 *583:62 *583:68 33.3901 
11 *583:68 *1496:A1 17.2 
12 *583:62 *1492:A1 48.4225 
13 *583:58 *1500:A1 17.2 
14 *583:48 *1598:A1 17.2 
15 *583:46 *1504:A1 17.2 
16 *583:20 *583:105 39.7824 
17 *583:105 *583:115 42.9058 
18 *583:115 *1509:A1 17.2 
19 *583:105 *583:122 13.5815 
20 *583:122 *583:128 36.3711 
21 *583:128 *1513:A1 17.2 
22 *583:122 *583:141 42.9525 
23 *583:141 *1515:A1 17.2 
*END

*D_NET *584 0.000894378
*CONN
*I *1508:A I *D OR3x1_ASAP7_75t_R
*I *1512:A I *D OR3x1_ASAP7_75t_R
*I *1514:A I *D OR3x1_ASAP7_75t_R
*I *1503:A I *D OR3x1_ASAP7_75t_R
*I *1597:A I *D OR3x1_ASAP7_75t_R
*I *1495:A I *D OR3x1_ASAP7_75t_R
*I *1491:A I *D OR3x1_ASAP7_75t_R
*I *1499:A I *D OR3x1_ASAP7_75t_R
*I *1490:Y O *D AO22x2_ASAP7_75t_R
*CAP
1 *1508:A 0
2 *1512:A 2.07914e-06
3 *1514:A 1.00488e-05
4 *1503:A 0
5 *1597:A 0
6 *1495:A 1.47546e-05
7 *1491:A 3.54781e-06
8 *1499:A 5.76052e-06
9 *1490:Y 3.98682e-06
10 *584:135 3.5742e-06
11 *584:129 4.05083e-05
12 *584:114 5.03979e-05
13 *584:103 2.675e-05
14 *584:96 4.32396e-06
15 *584:83 7.91955e-06
16 *584:57 3.84036e-05
17 *584:38 6.02433e-05
18 *584:32 6.6705e-05
19 *584:30 0.000120492
20 *584:20 0.000132779
21 *584:16 5.33598e-05
22 *584:8 2.16484e-05
23 *1495:A *587:10 2.29867e-05
24 *1495:A *925:27 0
25 *1499:A *587:10 0
26 *584:32 *999:18 0
27 *584:38 *999:18 0
28 *584:38 *1115:14 7.31606e-07
29 *584:57 *587:10 2.31732e-05
30 *584:57 *1115:22 1.0877e-05
31 *584:57 *1115:30 3.88115e-06
32 *1241:A *584:16 0
33 *1241:A *584:103 0
34 *1241:A *584:114 0
35 *1275:B *1512:A 1.36155e-06
36 *1365:A *584:135 5.08533e-06
37 *1491:B *1491:A 6.7842e-07
38 *1499:B *1499:A 2.20493e-06
39 *1499:B *584:38 7.17372e-06
40 *1597:C *584:83 2.28976e-06
41 *185:10 *584:83 1.43261e-05
42 *185:31 *584:38 0
43 *185:47 *584:32 0
44 *189:23 *1499:A 0
45 *189:23 *584:38 0
46 *190:8 *584:83 2.90209e-08
47 *190:14 *584:96 0
48 *207:25 *584:96 6.33206e-07
49 *220:28 *584:129 2.53484e-05
50 *322:29 *584:38 0
51 *325:8 *584:16 1.25675e-06
52 *325:8 *584:103 2.77657e-06
53 *325:8 *584:114 4.85096e-06
54 *417:8 *584:114 0
55 *440:10 *584:83 7.35192e-06
56 *441:21 *584:83 5.37866e-07
57 *465:8 *1495:A 2.45021e-07
58 *479:8 *1495:A 0
59 *479:14 *1499:A 5.22376e-07
60 *486:32 *584:30 4.3768e-06
61 *487:20 *584:96 2.43887e-07
62 *583:20 *584:20 3.18707e-06
63 *583:20 *584:30 0
64 *583:30 *584:30 0
65 *583:42 *584:30 0
66 *583:42 *584:32 0
67 *583:105 *584:20 0
68 *583:115 *584:129 3.19859e-05
69 *583:122 *584:16 0
70 *583:122 *584:129 4.89803e-05
*RES
1 *1490:Y *584:8 36.0045 
2 *584:8 *584:16 33.7881 
3 *584:16 *584:20 31.6291 
4 *584:20 *584:30 46.5674 
5 *584:30 *584:32 8.87396 
6 *584:32 *584:38 33.5366 
7 *584:38 *1499:A 38.3227 
8 *584:38 *584:57 48.4672 
9 *584:57 *1491:A 36.5393 
10 *584:57 *1495:A 46.7897 
11 *584:32 *584:83 41.861 
12 *584:83 *1597:A 17.2 
13 *584:30 *584:96 36.8776 
14 *584:96 *1503:A 17.2 
15 *584:8 *584:103 4.50533 
16 *584:103 *1514:A 40.2831 
17 *584:103 *584:114 9.01066 
18 *584:114 *1512:A 35.4697 
19 *584:114 *584:129 36.4707 
20 *584:129 *584:135 38.2483 
21 *584:135 *1508:A 17.2 
*END

*D_NET *585 5.41402e-05
*CONN
*I *1492:B I *D OA21x2_ASAP7_75t_R
*I *1491:Y O *D OR3x1_ASAP7_75t_R
*CAP
1 *1492:B 3.69668e-06
2 *1491:Y 9.99083e-06
3 *585:10 1.36875e-05
4 *585:10 *587:10 2.01079e-05
5 *1491:B *585:10 3.65131e-06
6 *1499:B *585:10 0
7 *479:14 *585:10 3.00603e-06
*RES
1 *1491:Y *585:10 43.8321 
2 *585:10 *1492:B 36.0045 
*END

*D_NET *586 4.25565e-05
*CONN
*I *1494:B I *D AO21x2_ASAP7_75t_R
*I *1493:Y O *D NOR2x2_ASAP7_75t_R
*CAP
1 *1494:B 1.01174e-05
2 *1493:Y 7.08308e-06
3 *586:8 1.72004e-05
4 *586:8 *687:37 4.42421e-06
5 *586:8 *688:23 0
6 *322:27 *1494:B 3.73144e-06
*RES
1 *1493:Y *586:8 41.158 
2 *586:8 *1494:B 41.3527 
*END

*D_NET *587 0.000217978
*CONN
*I *1496:B I *D OA21x2_ASAP7_75t_R
*I *1495:Y O *D OR3x1_ASAP7_75t_R
*CAP
1 *1496:B 4.49326e-06
2 *1495:Y 9.67906e-06
3 *587:10 5.03423e-05
4 *587:8 5.55281e-05
5 *587:10 *688:23 0
6 *587:10 *819:12 1.96424e-05
7 *587:10 *820:8 5.79724e-07
8 *587:10 *973:8 4.06435e-06
9 *587:10 *974:8 2.59962e-07
10 *1495:A *587:10 2.29867e-05
11 *1495:B *587:8 5.94108e-06
12 *1499:A *587:10 0
13 *322:18 *587:10 8.96443e-08
14 *479:14 *587:10 1.09067e-06
15 *584:57 *587:10 2.31732e-05
16 *585:10 *587:10 2.01079e-05
*RES
1 *1495:Y *587:8 39.2134 
2 *587:8 *587:10 40.548 
3 *587:10 *1496:B 37.0741 
*END

*D_NET *588 2.31994e-05
*CONN
*I *1498:B I *D AO21x2_ASAP7_75t_R
*I *1497:Y O *D NOR2x1_ASAP7_75t_R
*CAP
1 *1498:B 0
2 *1497:Y 4.28081e-06
3 *588:8 4.28081e-06
4 *588:8 *1103:10 9.11516e-06
5 *1498:A2 *588:8 5.52264e-06
*RES
1 *1497:Y *588:8 41.158 
2 *588:8 *1498:B 34.4 
*END

*D_NET *589 7.65869e-05
*CONN
*I *1500:B I *D OA21x2_ASAP7_75t_R
*I *1499:Y O *D OR3x1_ASAP7_75t_R
*CAP
1 *1500:B 1.48712e-05
2 *1499:Y 3.73918e-06
3 *589:8 1.86104e-05
4 *1500:B *816:14 1.45158e-05
5 *1500:B *820:8 0
6 *189:23 *1500:B 2.09865e-06
7 *583:56 *1500:B 2.27516e-05
*RES
1 *1499:Y *589:8 36.0045 
2 *589:8 *1500:B 48.4791 
*END

*D_NET *590 0.000107136
*CONN
*I *1502:B I *D AO21x2_ASAP7_75t_R
*I *1501:Y O *D NOR2x1_ASAP7_75t_R
*CAP
1 *1502:B 2.43978e-05
2 *1501:Y 1.74913e-05
3 *590:8 4.18891e-05
4 *1502:B *1043:10 6.7842e-07
5 *590:8 *1017:10 1.53071e-05
6 *590:8 *1046:10 3.55589e-06
7 *590:8 *1098:10 0
8 *207:8 *1502:B 3.81627e-06
*RES
1 *1501:Y *590:8 48.4791 
2 *590:8 *1502:B 49.3751 
*END

*D_NET *591 3.32592e-05
*CONN
*I *1504:B I *D OA21x2_ASAP7_75t_R
*I *1503:Y O *D OR3x1_ASAP7_75t_R
*CAP
1 *1504:B 0
2 *1503:Y 6.66572e-06
3 *591:8 6.66572e-06
4 *591:8 *1487:A 0
5 *305:25 *591:8 1.99278e-05
*RES
1 *1503:Y *591:8 41.158 
2 *591:8 *1504:B 34.4 
*END

*D_NET *592 4.56388e-05
*CONN
*I *1507:B I *D AO21x2_ASAP7_75t_R
*I *1506:Y O *D NOR2x1_ASAP7_75t_R
*CAP
1 *1507:B 7.1709e-06
2 *1506:Y 5.26357e-06
3 *592:8 1.24345e-05
4 *1507:B *1017:80 7.46759e-06
5 *592:8 *1017:69 0
6 *592:8 *1095:12 1.33022e-05
*RES
1 *1506:Y *592:8 38.9053 
2 *592:8 *1507:B 39.7482 
*END

*D_NET *593 5.82967e-05
*CONN
*I *1509:B I *D OA21x2_ASAP7_75t_R
*I *1508:Y O *D OR3x1_ASAP7_75t_R
*CAP
1 *1509:B 4.29605e-06
2 *1508:Y 2.11325e-05
3 *593:10 2.54286e-05
4 *220:36 *1509:B 3.90258e-06
5 *220:36 *593:10 3.2842e-06
6 *491:8 *593:10 0
7 *583:115 *593:10 2.52755e-07
*RES
1 *1508:Y *593:10 44.2252 
2 *593:10 *1509:B 37.0741 
*END

*D_NET *594 7.61771e-05
*CONN
*I *1511:B I *D AO21x2_ASAP7_75t_R
*I *1510:Y O *D NOR2x1_ASAP7_75t_R
*CAP
1 *1511:B 7.45594e-06
2 *1510:Y 4.52549e-06
3 *594:8 1.19814e-05
4 *1511:B *1510:B 1.62312e-05
5 *1511:B *1511:A2 1.08167e-05
6 *594:8 *1017:93 8.06799e-07
7 *220:8 *594:8 4.88493e-06
8 *581:14 *1511:B 1.94746e-05
*RES
1 *1510:Y *594:8 38.3422 
2 *594:8 *1511:B 43.492 
*END

*D_NET *595 5.40153e-05
*CONN
*I *1513:B I *D OA21x2_ASAP7_75t_R
*I *1512:Y O *D OR3x1_ASAP7_75t_R
*CAP
1 *1513:B 3.55562e-06
2 *1512:Y 4.84173e-06
3 *595:18 1.31374e-05
4 *595:10 1.44236e-05
5 *595:10 *1087:40 2.98961e-07
6 *595:18 *1087:40 7.82915e-06
7 *417:8 *595:10 2.48464e-06
8 *419:12 *595:18 3.88115e-06
9 *583:122 *595:18 5.87834e-07
10 *583:141 *595:18 2.97516e-06
*RES
1 *1512:Y *595:10 36.8492 
2 *595:10 *595:18 39.4874 
3 *595:18 *1513:B 36.0045 
*END

*D_NET *596 3.07506e-05
*CONN
*I *1515:B I *D OA21x2_ASAP7_75t_R
*I *1514:Y O *D OR3x1_ASAP7_75t_R
*CAP
1 *1515:B 1.53753e-05
2 *1514:Y 1.53753e-05
*RES
1 *1514:Y *1515:B 43.492 
*END

*D_NET *597 6.49401e-05
*CONN
*I *1520:A1 I *D OAI21x1_ASAP7_75t_R
*I *1523:D I *D OR4x1_ASAP7_75t_R
*I *1516:Y O *D OR2x2_ASAP7_75t_R
*CAP
1 *1520:A1 0
2 *1523:D 0
3 *1516:Y 6.63308e-06
4 *597:20 2.18752e-05
5 *597:10 2.18752e-05
6 *597:8 6.63308e-06
7 *597:8 *600:12 0
8 *597:20 *1531:B 0
9 *597:20 *600:12 0
10 *597:20 *601:10 6.47707e-06
11 *597:20 *602:51 1.44639e-06
12 *597:20 *605:8 0
*RES
1 *1516:Y *597:8 38.9053 
2 *597:8 *597:10 17.2 
3 *597:10 *597:20 49.3504 
4 *597:20 *1523:D 17.2 
5 *597:10 *1520:A1 17.2 
*END

*D_NET *598 7.81418e-05
*CONN
*I *1518:A1 I *D OA21x2_ASAP7_75t_R
*I *1517:Y O *D INVx1_ASAP7_75t_R
*CAP
1 *1518:A1 1.86052e-05
2 *1517:Y 1.57496e-05
3 *598:10 3.43548e-05
4 *1518:A1 *599:10 0
5 *598:10 *1015:40 8.60306e-07
6 *4:14 *598:10 5.34278e-06
7 *136:23 *1518:A1 1.27782e-06
8 *277:8 *598:10 1.95129e-06
*RES
1 *1517:Y *598:10 44.7884 
2 *598:10 *1518:A1 42.4224 
*END

*D_NET *599 0.000153183
*CONN
*I *1520:A2 I *D OAI21x1_ASAP7_75t_R
*I *1518:Y O *D OA21x2_ASAP7_75t_R
*CAP
1 *1520:A2 0
2 *1518:Y 2.91255e-05
3 *599:14 3.02256e-05
4 *599:10 5.93511e-05
5 *599:14 *600:12 8.87763e-06
6 *1518:A1 *599:10 0
7 *136:23 *599:10 9.31704e-06
8 *277:10 *599:10 1.6286e-05
*RES
1 *1518:Y *599:10 49.1237 
2 *599:10 *599:14 36.9885 
3 *599:14 *1520:A2 17.2 
*END

*D_NET *600 6.23591e-05
*CONN
*I *1520:B I *D OAI21x1_ASAP7_75t_R
*I *1519:Y O *D OA21x2_ASAP7_75t_R
*CAP
1 *1520:B 0
2 *1519:Y 0
3 *600:12 2.42162e-05
4 *600:6 2.42162e-05
5 *600:12 *703:12 3.92018e-06
6 *111:8 *600:12 1.12894e-06
7 *112:10 *600:12 0
8 *115:19 *600:12 0
9 *597:8 *600:12 0
10 *597:20 *600:12 0
11 *599:14 *600:12 8.87763e-06
*RES
1 *1519:Y *600:6 34.4 
2 *600:6 *600:12 36.2059 
3 *600:12 *1520:B 17.2 
*END

*D_NET *601 6.84804e-05
*CONN
*I *1531:A1 I *D AO21x2_ASAP7_75t_R
*I *1520:Y O *D OAI21x1_ASAP7_75t_R
*CAP
1 *1531:A1 1.65751e-05
2 *1520:Y 1.17049e-05
3 *601:10 2.82799e-05
4 *1531:A1 *1531:A2 5.41446e-06
5 *1531:A1 *1531:B 2.90209e-08
6 *601:10 *605:8 0
7 *597:20 *601:10 6.47707e-06
*RES
1 *1520:Y *601:10 42.1426 
2 *601:10 *1531:A1 44.5617 
*END

*D_NET *602 0.000324463
*CONN
*I *1523:C I *D OR4x1_ASAP7_75t_R
*I *1522:A I *D INVx1_ASAP7_75t_R
*I *1521:Y O *D OR4x1_ASAP7_75t_R
*CAP
1 *1523:C 0
2 *1522:A 0
3 *1521:Y 9.35427e-06
4 *602:51 3.89059e-05
5 *602:36 1.16086e-06
6 *602:30 0.000111443
7 *602:20 8.39653e-05
8 *602:10 2.19431e-05
9 *602:30 *612:12 0
10 *602:30 *708:24 3.9264e-05
11 *602:51 *1531:B 0
12 *602:51 *612:12 0
13 *602:51 *1015:18 7.48946e-07
14 *1521:A *602:10 1.62312e-05
15 *133:18 *602:10 0
16 *597:20 *602:51 1.44639e-06
*RES
1 *1521:Y *602:10 40.8091 
2 *602:10 *602:20 44.568 
3 *602:20 *602:30 42.4447 
4 *602:30 *602:36 35.057 
5 *602:36 *1522:A 17.2 
6 *602:30 *602:51 49.4917 
7 *602:51 *1523:C 17.2 
*END

*D_NET *603 1.89486e-05
*CONN
*I *1524:A I *D AND2x2_ASAP7_75t_R
*I *1522:Y O *D INVx1_ASAP7_75t_R
*CAP
1 *1524:A 3.04615e-06
2 *1522:Y 3.04615e-06
3 *1524:A *604:6 3.13426e-06
4 *1524:A *604:14 2.0895e-06
5 *1524:A *611:8 7.63254e-06
*RES
1 *1522:Y *1524:A 39.7482 
*END

*D_NET *604 0.000123832
*CONN
*I *1524:B I *D AND2x2_ASAP7_75t_R
*I *1530:B I *D OA211x2_ASAP7_75t_R
*I *1523:Y O *D OR4x1_ASAP7_75t_R
*CAP
1 *1524:B 0
2 *1530:B 1.13599e-05
3 *1523:Y 2.38679e-05
4 *604:14 3.21849e-05
5 *604:6 4.4693e-05
6 *1530:B *1530:C 3.89037e-06
7 *1530:B *610:10 1.04475e-06
8 *1530:B *611:8 1.56713e-06
9 *604:6 *611:8 0
10 *604:14 *611:8 0
11 *1524:A *604:6 3.13426e-06
12 *1524:A *604:14 2.0895e-06
*RES
1 *1523:Y *604:6 27.8965 
2 *604:6 *604:14 44.7034 
3 *604:14 *1530:B 25.2224 
4 *604:6 *1524:B 17.2 
*END

*D_NET *605 4.70476e-05
*CONN
*I *1531:A2 I *D AO21x2_ASAP7_75t_R
*I *1524:Y O *D AND2x2_ASAP7_75t_R
*CAP
1 *1531:A2 1.64693e-06
2 *1524:Y 9.98671e-06
3 *605:8 1.16336e-05
4 *1531:A2 *1531:B 2.03526e-06
5 *605:8 *1531:B 1.63307e-05
6 *605:8 *1015:112 0
7 *605:8 *1015:144 0
8 *1531:A1 *1531:A2 5.41446e-06
9 *597:20 *605:8 0
10 *601:10 *605:8 0
*RES
1 *1524:Y *605:8 42.2843 
2 *605:8 *1531:A2 36.0045 
*END

*D_NET *606 9.38322e-05
*CONN
*I *1529:B I *D NAND2x1_ASAP7_75t_R
*I *1526:B I *D OR2x4_ASAP7_75t_R
*I *1525:Y O *D INVx1_ASAP7_75t_R
*CAP
1 *1529:B 1.15997e-05
2 *1526:B 2.08088e-06
3 *1525:Y 2.70283e-05
4 *606:8 4.07089e-05
5 *1526:B *1529:A 5.52807e-07
6 *1526:B *607:8 0
7 *1529:B *1529:A 2.98814e-08
8 *1529:B *1530:A2 2.88806e-06
9 *1529:B *607:8 0
10 *1529:B *1106:10 0
11 *606:8 *1526:A 3.68565e-06
12 *259:12 *606:8 5.25794e-06
*RES
1 *1525:Y *606:8 46.701 
2 *606:8 *1526:B 36.0895 
3 *606:8 *1529:B 42.171 
*END

*D_NET *607 2.1422e-05
*CONN
*I *1530:A1 I *D OA211x2_ASAP7_75t_R
*I *1526:Y O *D OR2x4_ASAP7_75t_R
*CAP
1 *1530:A1 1.29724e-06
2 *1526:Y 6.62602e-06
3 *607:8 7.92326e-06
4 *1530:A1 *610:10 3.68287e-06
5 *607:8 *610:10 1.89255e-06
6 *1526:B *607:8 0
7 *1529:B *607:8 0
*RES
1 *1526:Y *607:8 38.9053 
2 *607:8 *1530:A1 35.4697 
*END

*D_NET *608 0.000107183
*CONN
*I *1528:A2 I *D OAI21x1_ASAP7_75t_R
*I *1527:Y O *D OA21x2_ASAP7_75t_R
*CAP
1 *1528:A2 0
2 *1527:Y 2.9307e-05
3 *608:6 2.9307e-05
4 *608:6 *1528:A1 2.97289e-06
5 *608:6 *707:46 5.34278e-06
6 *1528:B *608:6 4.02536e-05
*RES
1 *1527:Y *608:6 41.2671 
2 *608:6 *1528:A2 17.2 
*END

*D_NET *609 8.96816e-05
*CONN
*I *1530:A2 I *D OA211x2_ASAP7_75t_R
*I *1528:Y O *D OAI21x1_ASAP7_75t_R
*CAP
1 *1530:A2 1.74081e-05
2 *1528:Y 1.89708e-05
3 *609:10 3.63789e-05
4 *1530:A2 *1529:A 2.71246e-07
5 *1530:A2 *610:10 1.01102e-06
6 *609:10 *708:49 8.15175e-06
7 *609:10 *1015:120 0
8 *609:10 *1106:10 4.60174e-06
9 *1529:B *1530:A2 2.88806e-06
10 *241:8 *609:10 0
*RES
1 *1528:Y *609:10 48.9573 
2 *609:10 *1530:A2 45.0965 
*END

*D_NET *610 5.56118e-05
*CONN
*I *1530:C I *D OA211x2_ASAP7_75t_R
*I *1529:Y O *D NAND2x1_ASAP7_75t_R
*CAP
1 *1530:C 1.22122e-06
2 *1529:Y 2.08239e-05
3 *610:10 2.20451e-05
4 *1530:A1 *610:10 3.68287e-06
5 *1530:A2 *610:10 1.01102e-06
6 *1530:B *1530:C 3.89037e-06
7 *1530:B *610:10 1.04475e-06
8 *607:8 *610:10 1.89255e-06
*RES
1 *1529:Y *610:10 45.2382 
2 *610:10 *1530:C 35.4697 
*END

*D_NET *611 0.000117382
*CONN
*I *1531:B I *D AO21x2_ASAP7_75t_R
*I *1530:Y O *D OA211x2_ASAP7_75t_R
*CAP
1 *1531:B 1.8624e-05
2 *1530:Y 2.62698e-05
3 *611:8 4.48938e-05
4 *1531:B *1015:112 0
5 *1524:A *611:8 7.63254e-06
6 *1530:B *611:8 1.56713e-06
7 *1531:A1 *1531:B 2.90209e-08
8 *1531:A2 *1531:B 2.03526e-06
9 *597:20 *1531:B 0
10 *602:51 *1531:B 0
11 *604:6 *611:8 0
12 *604:14 *611:8 0
13 *605:8 *1531:B 1.63307e-05
*RES
1 *1530:Y *611:8 47.7706 
2 *611:8 *1531:B 46.6763 
*END

*D_NET *612 0.000647133
*CONN
*I *1980:A I *D BUFx6f_ASAP7_75t_R
*I *1534:B I *D NOR2x1_ASAP7_75t_R
*I *1535:A2 I *D AO21x2_ASAP7_75t_R
*I *1555:A1 I *D AO21x2_ASAP7_75t_R
*I *1559:A2 I *D AO21x2_ASAP7_75t_R
*I *1554:B I *D NOR2x2_ASAP7_75t_R
*I *1558:B I *D NOR2x1_ASAP7_75t_R
*I *1531:Y O *D AO21x2_ASAP7_75t_R
*CAP
1 *1980:A 0
2 *1534:B 0
3 *1535:A2 0
4 *1555:A1 0
5 *1559:A2 0
6 *1554:B 0
7 *1558:B 0
8 *1531:Y 1.18706e-06
9 *612:116 8.99648e-07
10 *612:105 1.09021e-06
11 *612:94 1.4555e-05
12 *612:76 1.82429e-05
13 *612:66 2.96126e-05
14 *612:48 1.93531e-05
15 *612:42 1.93531e-05
16 *612:40 2.07692e-05
17 *612:34 5.85155e-05
18 *612:32 5.87393e-05
19 *612:30 6.77362e-05
20 *612:20 8.98504e-05
21 *612:12 8.01619e-05
22 *612:8 3.94373e-05
23 *612:12 *1015:18 5.08164e-08
24 *612:20 *708:49 2.71153e-06
25 *612:30 *705:59 0
26 *612:34 *696:36 1.86017e-06
27 *612:34 *705:59 0
28 *612:34 *706:38 0
29 *612:34 *707:40 0
30 *612:40 *633:12 0
31 *612:40 *635:8 0
32 *612:40 *705:36 0
33 *612:40 *1055:8 6.95214e-06
34 *612:48 *1056:10 5.67735e-06
35 *612:66 *1617:B 2.25787e-06
36 *612:66 *633:12 0
37 *612:66 *635:8 0
38 *612:76 *1212:A 0
39 *612:76 *1559:B 2.88806e-06
40 *612:76 *1617:B 0
41 *612:76 *635:8 2.68933e-07
42 *612:94 *615:10 0
43 *612:94 *707:46 3.45037e-05
44 *612:94 *1116:6 1.59615e-06
45 *612:116 *652:8 4.97876e-07
46 *1527:B *612:94 9.25072e-06
47 *28:10 *612:40 5.29164e-06
48 *67:8 *612:76 1.5804e-05
49 *104:14 *612:48 3.70102e-05
50 *131:21 *612:105 1.00899e-06
51 *144:14 *612:34 0
52 *144:14 *612:40 0
53 *602:30 *612:12 0
54 *602:51 *612:12 0
*RES
1 *1531:Y *612:8 35.057 
2 *612:8 *612:12 31.9178 
3 *612:12 *612:20 40.3741 
4 *612:20 *612:30 35.6312 
5 *612:30 *612:32 6.2767 
6 *612:32 *612:34 9.52327 
7 *612:34 *612:40 34.5047 
8 *612:40 *612:42 17.2 
9 *612:42 *612:48 35.1893 
10 *612:48 *1558:B 34.4 
11 *612:42 *1554:B 17.2 
12 *612:34 *612:66 43.6922 
13 *612:66 *612:76 47.969 
14 *612:76 *1559:A2 17.2 
15 *612:66 *1555:A1 17.2 
16 *612:32 *612:94 48.619 
17 *612:94 *1535:A2 17.2 
18 *612:30 *612:105 35.2447 
19 *612:105 *1534:B 17.2 
20 *612:12 *612:116 35.057 
21 *612:116 *1980:A 17.2 
*END

*D_NET *615 6.07264e-05
*CONN
*I *1535:B I *D AO21x2_ASAP7_75t_R
*I *1534:Y O *D NOR2x1_ASAP7_75t_R
*CAP
1 *1535:B 4.26246e-06
2 *1534:Y 1.92455e-05
3 *615:10 2.35079e-05
4 *1535:B *1116:6 7.54771e-06
5 *131:8 *615:10 1.89962e-06
6 *131:21 *615:10 1.12894e-06
7 *315:8 *1535:B 3.13426e-06
8 *612:94 *615:10 0
*RES
1 *1534:Y *615:10 45.9714 
2 *615:10 *1535:B 39.7482 
*END

*D_NET *616 1.12042e-05
*CONN
*I *1537:A1 I *D OA21x2_ASAP7_75t_R
*I *1536:Y O *D INVx1_ASAP7_75t_R
*CAP
1 *1537:A1 2.13895e-06
2 *1536:Y 2.13895e-06
3 *79:14 *1537:A1 6.92634e-06
*RES
1 *1536:Y *1537:A1 36.5393 
*END

*D_NET *617 3.96737e-05
*CONN
*I *1538:A2 I *D OA21x2_ASAP7_75t_R
*I *1537:Y O *D OA21x2_ASAP7_75t_R
*CAP
1 *1538:A2 1.13458e-05
2 *1537:Y 1.13458e-05
3 *1538:B *1538:A2 1.69821e-05
*RES
1 *1537:Y *1538:A2 41.3527 
*END

*D_NET *618 0.000242823
*CONN
*I *1542:A2 I *D OAI21x1_ASAP7_75t_R
*I *1538:Y O *D OA21x2_ASAP7_75t_R
*CAP
1 *1542:A2 0
2 *1538:Y 1.88499e-05
3 *618:22 1.33164e-05
4 *618:14 9.44787e-05
5 *618:10 0.000100012
6 *618:14 *624:49 5.15387e-07
7 *618:14 *625:18 0
8 *618:14 *631:115 0
9 *618:14 *631:132 0
10 *618:22 *1542:B 1.0374e-06
11 *618:22 *621:8 6.78445e-06
12 *1538:B *618:10 4.56834e-06
13 *1701:A *618:22 6.7842e-07
14 *79:22 *618:22 2.58225e-06
*RES
1 *1538:Y *618:10 41.5033 
2 *618:10 *618:14 44.2547 
3 *618:14 *618:22 44.5812 
4 *618:22 *1542:A2 17.2 
*END

*D_NET *619 1.70999e-05
*CONN
*I *1540:A2 I *D OA211x2_ASAP7_75t_R
*I *1539:Y O *D OA21x2_ASAP7_75t_R
*CAP
1 *1540:A2 8.54997e-06
2 *1539:Y 8.54997e-06
*RES
1 *1539:Y *1540:A2 39.7482 
*END

*D_NET *620 0.00031061
*CONN
*I *1546:B I *D NAND2x1_ASAP7_75t_R
*I *1541:B I *D AND2x2_ASAP7_75t_R
*I *1540:Y O *D OA211x2_ASAP7_75t_R
*CAP
1 *1546:B 1.2522e-05
2 *1541:B 0
3 *1540:Y 2.65429e-05
4 *620:20 1.44959e-05
5 *620:14 8.09701e-05
6 *620:10 9.60321e-05
7 *620:8 4.35787e-05
8 *1546:B *1546:A 7.46759e-06
9 *1546:B *1110:10 0
10 *620:10 *1110:10 0
11 *620:14 *624:32 4.98688e-08
12 *620:14 *625:28 2.09742e-06
13 *620:14 *628:30 0
14 *620:14 *628:32 0
15 *620:20 *1551:B1 3.19895e-06
16 *620:20 *622:10 3.27778e-06
17 *620:20 *992:8 8.33296e-06
18 *53:10 *620:20 0
19 *240:10 *1546:B 0
20 *241:27 *620:10 0
21 *242:23 *620:8 1.20437e-05
*RES
1 *1540:Y *620:8 47.7706 
2 *620:8 *620:10 11.9203 
3 *620:10 *620:14 41.0082 
4 *620:14 *620:20 46.3203 
5 *620:20 *1541:B 17.2 
6 *620:10 *1546:B 43.5965 
*END

*D_NET *621 8.73798e-05
*CONN
*I *1542:B I *D OAI21x1_ASAP7_75t_R
*I *1541:Y O *D AND2x2_ASAP7_75t_R
*CAP
1 *1542:B 4.63047e-06
2 *1541:Y 2.42007e-05
3 *621:8 2.88312e-05
4 *1542:B *1001:8 2.20128e-06
5 *54:12 *621:8 1.96943e-05
6 *79:22 *1542:B 0
7 *618:22 *1542:B 1.0374e-06
8 *618:22 *621:8 6.78445e-06
*RES
1 *1541:Y *621:8 46.701 
2 *621:8 *1542:B 38.3422 
*END

*D_NET *622 0.000107188
*CONN
*I *1551:B1 I *D AO22x2_ASAP7_75t_R
*I *1957:A I *D BUFx3_ASAP7_75t_R
*I *1542:Y O *D OAI21x1_ASAP7_75t_R
*CAP
1 *1551:B1 1.61085e-05
2 *1957:A 0
3 *1542:Y 1.92082e-05
4 *622:10 2.50518e-05
5 *622:8 2.81515e-05
6 *1551:B1 *627:27 1.35839e-06
7 *1551:B1 *628:10 3.05118e-08
8 *1551:B1 *631:10 0
9 *622:10 *998:8 0
10 *622:10 *1004:14 0
11 *53:10 *622:10 0
12 *53:16 *1551:B1 1.04475e-06
13 *54:12 *622:8 9.75735e-06
14 *620:20 *1551:B1 3.19895e-06
15 *620:20 *622:10 3.27778e-06
*RES
1 *1542:Y *622:8 47.7706 
2 *622:8 *622:10 7.88432 
3 *622:10 *1957:A 34.4 
4 *622:10 *1551:B1 45.0151 
*END

*D_NET *623 4.93452e-05
*CONN
*I *1547:A I *D AND3x1_ASAP7_75t_R
*I *1543:Y O *D INVx1_ASAP7_75t_R
*CAP
1 *1547:A 0
2 *1543:Y 0
3 *623:10 1.96962e-05
4 *623:6 1.96962e-05
5 *623:10 *626:10 3.6269e-06
6 *623:10 *627:8 0
7 *623:10 *627:14 0
8 *623:10 *994:8 5.95235e-06
9 *623:10 *1004:27 0
10 *623:10 *1005:12 3.73518e-07
11 *240:10 *623:10 0
*RES
1 *1543:Y *623:6 34.4 
2 *623:6 *623:10 33.5318 
3 *623:10 *1547:A 17.2 
*END

*D_NET *624 0.000329408
*CONN
*I *1545:A I *D OR5x1_ASAP7_75t_R
*I *2075:A I *D BUFx3_ASAP7_75t_R
*I *1544:Y O *D OR3x1_ASAP7_75t_R
*CAP
1 *1545:A 0
2 *2075:A 0
3 *1544:Y 5.78463e-07
4 *624:55 2.36019e-06
5 *624:49 9.92598e-05
6 *624:32 6.06233e-06
7 *624:20 0.000146884
8 *624:18 4.82714e-05
9 *624:8 4.92792e-06
10 *624:20 *707:32 0
11 *624:20 *852:25 1.61918e-05
12 *624:49 *625:28 0
13 *624:49 *628:30 0
14 *624:49 *628:90 0
15 *624:49 *631:115 2.86746e-06
16 *624:49 *695:28 0
17 *624:49 *704:36 0
18 *145:12 *624:8 0
19 *241:27 *624:32 4.97876e-07
20 *276:8 *624:55 1.94229e-07
21 *317:29 *624:8 7.47402e-07
22 *618:14 *624:49 5.15387e-07
23 *620:14 *624:32 4.98688e-08
*RES
1 *1544:Y *624:8 35.057 
2 *624:8 *624:18 41.8188 
3 *624:18 *624:20 11.7845 
4 *624:20 *624:32 42.9087 
5 *624:32 *2075:A 34.4 
6 *624:20 *624:49 48.765 
7 *624:49 *624:55 36.1834 
8 *624:55 *1545:A 17.2 
*END

*D_NET *625 0.000235329
*CONN
*I *1547:B I *D AND3x1_ASAP7_75t_R
*I *1545:Y O *D OR5x1_ASAP7_75t_R
*CAP
1 *1547:B 0
2 *1545:Y 3.35313e-06
3 *625:36 2.10943e-05
4 *625:28 7.46249e-05
5 *625:18 6.31204e-05
6 *625:8 1.29429e-05
7 *625:8 *1014:10 0
8 *625:18 *631:115 3.0362e-06
9 *625:28 *628:18 3.80594e-06
10 *625:28 *628:90 4.43274e-05
11 *625:36 *1547:C 6.92634e-06
12 *276:8 *625:8 0
13 *618:14 *625:18 0
14 *620:14 *625:28 2.09742e-06
15 *624:49 *625:28 0
*RES
1 *1545:Y *625:8 36.3711 
2 *625:8 *625:18 44.3582 
3 *625:18 *625:28 40.6258 
4 *625:28 *625:36 47.0109 
5 *625:36 *1547:B 17.2 
*END

*D_NET *626 9.65973e-05
*CONN
*I *1547:C I *D AND3x1_ASAP7_75t_R
*I *1546:Y O *D NAND2x1_ASAP7_75t_R
*CAP
1 *1547:C 9.24228e-06
2 *1546:Y 3.11111e-05
3 *626:10 4.03533e-05
4 *626:10 *1005:12 5.33743e-06
5 *623:10 *626:10 3.6269e-06
6 *625:36 *1547:C 6.92634e-06
*RES
1 *1546:Y *626:10 49.5735 
2 *626:10 *1547:C 40.2831 
*END

*D_NET *627 0.000201827
*CONN
*I *1551:B2 I *D AO22x2_ASAP7_75t_R
*I *1959:A I *D BUFx3_ASAP7_75t_R
*I *1547:Y O *D AND3x1_ASAP7_75t_R
*CAP
1 *1551:B2 0
2 *1959:A 0
3 *1547:Y 5.42117e-06
4 *627:27 2.28264e-05
5 *627:14 2.25834e-05
6 *627:8 5.0831e-05
7 *627:8 *1551:A1 4.57263e-07
8 *627:14 *994:8 7.7325e-06
9 *627:14 *1004:8 9.9223e-06
10 *627:14 *1004:14 5.21889e-05
11 *627:27 *992:12 4.66054e-06
12 *627:27 *1004:14 9.30483e-06
13 *627:27 *1004:27 1.45405e-05
14 *1551:B1 *627:27 1.35839e-06
15 *241:12 *627:14 0
16 *623:10 *627:8 0
17 *623:10 *627:14 0
*RES
1 *1547:Y *627:8 37.779 
2 *627:8 *627:14 42.7372 
3 *627:14 *1959:A 17.2 
4 *627:8 *627:27 46.9277 
5 *627:27 *1551:B2 34.4 
*END

*D_NET *628 0.000926642
*CONN
*I *1566:A1 I *D OA21x2_ASAP7_75t_R
*I *1574:A1 I *D OA21x2_ASAP7_75t_R
*I *1570:A1 I *D OA21x2_ASAP7_75t_R
*I *1578:A1 I *D OA21x2_ASAP7_75t_R
*I *1610:A1 I *D OA21x2_ASAP7_75t_R
*I *1553:A2 I *D OA21x2_ASAP7_75t_R
*I *1561:A1 I *D OA21x2_ASAP7_75t_R
*I *1557:A1 I *D OA21x2_ASAP7_75t_R
*I *1548:Y O *D AOI22x1_ASAP7_75t_R
*CAP
1 *1566:A1 0
2 *1574:A1 0
3 *1570:A1 4.34222e-06
4 *1578:A1 2.69396e-06
5 *1610:A1 0
6 *1553:A2 0
7 *1561:A1 6.39215e-06
8 *1557:A1 1.63251e-05
9 *1548:Y 6.58625e-06
10 *628:143 2.73627e-05
11 *628:128 3.12318e-06
12 *628:120 3.59948e-05
13 *628:105 4.30729e-05
14 *628:94 2.75877e-05
15 *628:90 8.23029e-05
16 *628:77 8.52766e-06
17 *628:66 4.20473e-06
18 *628:38 8.28334e-05
19 *628:32 0.000113508
20 *628:30 9.51183e-05
21 *628:20 0.000100672
22 *628:18 5.16346e-05
23 *628:10 3.08582e-05
24 *1557:A1 *634:10 7.84037e-07
25 *1561:A1 *827:8 3.25357e-06
26 *1578:A1 *631:132 0
27 *628:10 *1551:A1 1.49407e-08
28 *628:10 *992:12 2.12481e-06
29 *628:10 *998:8 2.31409e-07
30 *628:30 *631:33 0
31 *628:30 *979:20 1.48845e-06
32 *628:32 *631:102 0
33 *628:32 *852:25 0
34 *628:32 *983:20 1.20932e-06
35 *628:38 *1946:A 0
36 *628:38 *631:47 3.98694e-05
37 *628:38 *631:66 3.43227e-06
38 *628:38 *634:10 6.16219e-06
39 *628:38 *983:20 2.54697e-06
40 *628:66 *1553:B 1.36155e-06
41 *628:77 *1005:12 1.20291e-05
42 *628:90 *631:33 0
43 *628:94 *631:115 5.98426e-07
44 *628:94 *631:132 4.98688e-07
45 *628:105 *631:132 0
46 *628:120 *1570:B 0
47 *628:120 *631:132 0
48 *628:120 *631:151 7.3874e-07
49 *628:128 *642:6 3.89037e-06
50 *628:143 *1566:A2 9.41947e-07
51 *628:143 *631:31 0
52 *628:143 *830:10 0
53 *1551:B1 *628:10 3.05118e-08
54 *77:28 *628:90 7.89897e-07
55 *77:28 *628:94 4.17511e-06
56 *78:8 *1570:A1 1.25483e-05
57 *78:12 *628:105 4.9137e-07
58 *79:8 *1578:A1 7.36823e-06
59 *79:8 *628:105 3.97187e-06
60 *144:28 *628:38 1.75432e-05
61 *240:10 *628:77 7.82377e-07
62 *464:8 *628:77 6.49127e-06
63 *620:14 *628:30 0
64 *620:14 *628:32 0
65 *624:49 *628:30 0
66 *624:49 *628:90 0
67 *625:28 *628:18 3.80594e-06
68 *625:28 *628:90 4.43274e-05
*RES
1 *1548:Y *628:10 37.9756 
2 *628:10 *628:18 38.94 
3 *628:18 *628:20 11.8 
4 *628:20 *628:30 33.3712 
5 *628:30 *628:32 21.2109 
6 *628:32 *628:38 49.2448 
7 *628:38 *1557:A1 45.2382 
8 *628:38 *1561:A1 38.6786 
9 *628:32 *628:66 36.5021 
10 *628:66 *1553:A2 17.2 
11 *628:30 *628:77 43.88 
12 *628:77 *1610:A1 17.2 
13 *628:20 *628:90 43.9369 
14 *628:90 *628:94 24.2883 
15 *628:94 *1578:A1 36.9342 
16 *628:94 *628:105 4.78691 
17 *628:105 *1570:A1 38.1438 
18 *628:105 *628:120 32.9258 
19 *628:120 *628:128 36.1267 
20 *628:128 *1574:A1 17.2 
21 *628:18 *628:143 41.1792 
22 *628:143 *1566:A1 34.4 
*END

*D_NET *629 6.04768e-05
*CONN
*I *1584:A I *D NOR2x1_ASAP7_75t_R
*I *1552:C I *D OR3x1_ASAP7_75t_R
*I *1549:Y O *D AND2x2_ASAP7_75t_R
*CAP
1 *1584:A 0
2 *1552:C 9.8988e-06
3 *1549:Y 6.67739e-06
4 *629:8 1.65762e-05
5 *1552:C *1552:A 1.56713e-06
6 *1552:C *630:18 6.79293e-06
7 *1552:C *631:66 7.63254e-07
8 *1552:C *636:10 0
9 *629:8 *630:8 1.34969e-05
10 *629:8 *630:18 4.70422e-06
11 *629:8 *636:10 0
12 *66:10 *1552:C 0
*RES
1 *1549:Y *629:8 42.2843 
2 *629:8 *1552:C 42.171 
3 *629:8 *1584:A 34.4 
*END

*D_NET *630 0.000119559
*CONN
*I *1584:B I *D NOR2x1_ASAP7_75t_R
*I *1552:A I *D OR3x1_ASAP7_75t_R
*I *1550:Y O *D AND2x2_ASAP7_75t_R
*CAP
1 *1584:B 2.91246e-06
2 *1552:A 6.0175e-06
3 *1550:Y 1.52175e-05
4 *630:18 2.17199e-05
5 *630:12 2.22574e-05
6 *630:8 1.88601e-05
7 *1552:A *631:66 5.19475e-06
8 *630:8 *799:22 5.74232e-07
9 *630:18 *631:66 2.43887e-07
10 *630:18 *829:10 0
11 *1552:C *1552:A 1.56713e-06
12 *1552:C *630:18 6.79293e-06
13 *66:10 *630:18 0
14 *314:8 *630:18 0
15 *629:8 *630:8 1.34969e-05
16 *629:8 *630:18 4.70422e-06
*RES
1 *1550:Y *630:8 47.3528 
2 *630:8 *630:12 18.8045 
3 *630:12 *630:18 46.7897 
4 *630:18 *1552:A 21.4786 
5 *630:12 *1584:B 18.8045 
*END

*D_NET *631 0.000949963
*CONN
*I *1569:B I *D OR3x1_ASAP7_75t_R
*I *1573:B I *D OR3x1_ASAP7_75t_R
*I *1577:B I *D OR2x2_ASAP7_75t_R
*I *1609:B I *D OR3x1_ASAP7_75t_R
*I *1560:B I *D OR3x1_ASAP7_75t_R
*I *1552:B I *D OR3x1_ASAP7_75t_R
*I *1556:B I *D OR3x1_ASAP7_75t_R
*I *1565:B I *D OR3x1_ASAP7_75t_R
*I *1551:Y O *D AO22x2_ASAP7_75t_R
*CAP
1 *1569:B 0
2 *1573:B 0
3 *1577:B 0
4 *1609:B 0
5 *1560:B 1.9442e-06
6 *1552:B 0
7 *1556:B 1.89015e-06
8 *1565:B 3.45405e-06
9 *1551:Y 7.77725e-06
10 *631:151 2.05977e-05
11 *631:136 2.76917e-05
12 *631:132 3.88977e-05
13 *631:121 9.18812e-07
14 *631:115 8.28889e-05
15 *631:102 9.58637e-06
16 *631:81 2.35287e-05
17 *631:66 7.22756e-06
18 *631:47 4.88846e-05
19 *631:41 6.9253e-05
20 *631:37 9.60279e-05
21 *631:33 0.000130674
22 *631:31 7.08548e-05
23 *631:10 3.50163e-05
24 *631:8 8.03261e-05
25 *1556:B *634:10 6.7842e-07
26 *1565:B *638:8 2.71839e-06
27 *631:10 *1566:A2 0
28 *631:10 *1566:B 0
29 *631:31 *1566:B 0
30 *631:33 *979:20 4.75536e-07
31 *631:37 *707:20 1.08558e-06
32 *631:37 *983:20 7.74994e-07
33 *631:41 *983:20 7.67075e-07
34 *631:47 *980:20 5.66897e-07
35 *631:47 *981:20 2.60114e-06
36 *631:81 *980:20 0
37 *631:102 *1025:74 0
38 *631:132 *1014:25 4.73194e-06
39 *631:151 *1570:B 0
40 *1141:B *631:132 0
41 *1141:B *631:151 0
42 *1169:A *631:81 3.67907e-06
43 *1181:B *631:10 1.97111e-05
44 *1181:B *631:31 2.78959e-06
45 *1265:B *631:47 2.43887e-07
46 *1301:A *631:102 5.37866e-07
47 *1551:B1 *631:10 0
48 *1552:A *631:66 5.19475e-06
49 *1552:C *631:66 7.63254e-07
50 *1565:A *1565:B 2.03526e-06
51 *1573:A *631:136 3.65131e-06
52 *1573:C *631:136 5.51397e-07
53 *1578:A1 *631:132 0
54 *52:8 *631:10 0
55 *53:10 *631:10 1.47813e-05
56 *53:16 *631:8 1.51653e-06
57 *53:16 *631:10 0
58 *66:10 *631:66 0
59 *76:8 *631:132 2.83874e-07
60 *77:34 *631:132 7.82377e-07
61 *79:8 *631:132 0
62 *144:28 *631:47 4.61286e-07
63 *277:40 *631:121 1.93482e-06
64 *277:40 *631:132 1.64764e-06
65 *352:38 *631:81 6.25922e-07
66 *352:40 *1560:B 2.52755e-07
67 *354:28 *631:33 1.23846e-05
68 *354:28 *631:37 4.61688e-05
69 *354:36 *631:81 6.35827e-07
70 *354:51 *631:81 0
71 *355:10 *631:151 0
72 *376:18 *631:81 1.96009e-06
73 *464:8 *631:102 3.58577e-07
74 *468:6 *631:151 1.59615e-06
75 *468:19 *631:151 0
76 *469:14 *631:151 2.28976e-06
77 *618:14 *631:115 0
78 *618:14 *631:132 0
79 *624:49 *631:115 2.86746e-06
80 *625:18 *631:115 3.0362e-06
81 *628:30 *631:33 0
82 *628:32 *631:102 0
83 *628:38 *631:47 3.98694e-05
84 *628:38 *631:66 3.43227e-06
85 *628:90 *631:33 0
86 *628:94 *631:115 5.98426e-07
87 *628:94 *631:132 4.98688e-07
88 *628:105 *631:132 0
89 *628:120 *631:132 0
90 *628:120 *631:151 7.3874e-07
91 *628:143 *631:31 0
92 *630:18 *631:66 2.43887e-07
*RES
1 *1551:Y *631:8 38.1438 
2 *631:8 *631:10 19.7108 
3 *631:10 *1565:B 36.5393 
4 *631:10 *631:31 44.7829 
5 *631:31 *631:33 15.2058 
6 *631:33 *631:37 29.2866 
7 *631:37 *631:41 18.7136 
8 *631:41 *631:47 37.8389 
9 *631:47 *1556:B 35.4697 
10 *631:41 *631:66 39.653 
11 *631:66 *1552:B 17.2 
12 *631:37 *631:81 39.5913 
13 *631:81 *1560:B 35.4697 
14 *631:33 *631:102 44.7877 
15 *631:102 *1609:B 34.4 
16 *631:8 *631:115 39.0602 
17 *631:115 *631:121 35.057 
18 *631:121 *1577:B 17.2 
19 *631:115 *631:132 38.7207 
20 *631:132 *631:136 21.4786 
21 *631:136 *1573:B 17.2 
22 *631:136 *631:151 47.6893 
23 *631:151 *1569:B 17.2 
*END

*D_NET *632 5.97612e-05
*CONN
*I *1553:B I *D OA21x2_ASAP7_75t_R
*I *1552:Y O *D OR3x1_ASAP7_75t_R
*CAP
1 *1553:B 4.91687e-06
2 *1552:Y 1.22277e-05
3 *632:10 1.71445e-05
4 *314:8 *632:10 8.0991e-06
5 *315:25 *1553:B 1.60115e-05
6 *315:25 *632:10 0
7 *628:66 *1553:B 1.36155e-06
*RES
1 *1552:Y *632:10 42.0293 
2 *632:10 *1553:B 39.2134 
*END

*D_NET *633 8.89105e-05
*CONN
*I *1555:B I *D AO21x2_ASAP7_75t_R
*I *1554:Y O *D NOR2x2_ASAP7_75t_R
*CAP
1 *1555:B 0
2 *1554:Y 0
3 *633:12 3.63758e-05
4 *633:6 3.63758e-05
5 *633:12 *1617:B 8.82188e-06
6 *633:12 *696:42 3.45062e-06
7 *633:12 *707:46 0
8 *633:12 *1055:8 0
9 *633:12 *1116:14 1.62854e-06
10 *30:10 *633:12 0
11 *30:16 *633:12 0
12 *104:8 *633:12 1.67815e-06
13 *104:14 *633:12 5.79724e-07
14 *612:40 *633:12 0
15 *612:66 *633:12 0
*RES
1 *1554:Y *633:6 34.4 
2 *633:6 *633:12 46.9628 
3 *633:12 *1555:B 17.2 
*END

*D_NET *634 4.02843e-05
*CONN
*I *1557:B I *D OA21x2_ASAP7_75t_R
*I *1556:Y O *D OR3x1_ASAP7_75t_R
*CAP
1 *1557:B 0
2 *1556:Y 1.5296e-05
3 *634:10 1.5296e-05
4 *1265:B *634:10 7.63254e-07
5 *1556:B *634:10 6.7842e-07
6 *1556:C *634:10 5.19552e-07
7 *1557:A1 *634:10 7.84037e-07
8 *144:34 *634:10 7.84772e-07
9 *628:38 *634:10 6.16219e-06
*RES
1 *1556:Y *634:10 43.7754 
2 *634:10 *1557:B 34.4 
*END

*D_NET *635 4.71791e-05
*CONN
*I *1559:B I *D AO21x2_ASAP7_75t_R
*I *1558:Y O *D NOR2x1_ASAP7_75t_R
*CAP
1 *1559:B 3.22216e-06
2 *1558:Y 1.71482e-05
3 *635:8 2.03704e-05
4 *635:8 *1212:A 2.1664e-06
5 *28:10 *635:8 1.11494e-06
6 *612:40 *635:8 0
7 *612:66 *635:8 0
8 *612:76 *1559:B 2.88806e-06
9 *612:76 *635:8 2.68933e-07
*RES
1 *1558:Y *635:8 48.4791 
2 *635:8 *1559:B 36.5393 
*END

*D_NET *636 0.00016867
*CONN
*I *1561:B I *D OA21x2_ASAP7_75t_R
*I *1560:Y O *D OR3x1_ASAP7_75t_R
*CAP
1 *1561:B 1.58487e-05
2 *1560:Y 0
3 *636:10 3.77479e-05
4 *636:6 2.18992e-05
5 *1561:B *1561:A2 1.46661e-05
6 *1561:B *826:10 4.00846e-06
7 *636:10 *826:10 0
8 *636:10 *980:8 2.558e-05
9 *1169:A *636:10 5.61148e-06
10 *1552:C *636:10 0
11 *1659:A *636:10 3.33954e-05
12 *66:10 *636:10 2.79173e-06
13 *144:20 *1561:B 5.41446e-06
14 *144:28 *636:10 1.70708e-06
15 *376:18 *636:10 0
16 *629:8 *636:10 0
*RES
1 *1560:Y *636:6 34.4 
2 *636:6 *636:10 39.7266 
3 *636:10 *1561:B 28.4313 
*END

*D_NET *637 8.98167e-05
*CONN
*I *1564:B I *D AO21x2_ASAP7_75t_R
*I *1563:Y O *D NOR2x1_ASAP7_75t_R
*CAP
1 *1564:B 3.58227e-06
2 *1563:Y 1.06453e-05
3 *637:8 1.42276e-05
4 *1564:B *1564:A2 6.7842e-07
5 *637:8 *704:55 3.25095e-06
6 *637:8 *1015:148 4.1871e-05
7 *113:25 *637:8 1.55612e-05
*RES
1 *1563:Y *637:8 48.4791 
2 *637:8 *1564:B 36.0045 
*END

*D_NET *638 0.000102395
*CONN
*I *1566:B I *D OA21x2_ASAP7_75t_R
*I *1565:Y O *D OR3x1_ASAP7_75t_R
*CAP
1 *1566:B 1.0499e-05
2 *1565:Y 2.92337e-05
3 *638:8 3.97327e-05
4 *1566:B *1566:A2 1.33478e-05
5 *1566:B *825:8 2.67272e-06
6 *638:8 *825:16 3.68565e-06
7 *1181:B *1566:B 0
8 *1565:B *638:8 2.71839e-06
9 *1565:C *638:8 5.0551e-07
10 *631:10 *1566:B 0
11 *631:31 *1566:B 0
*RES
1 *1565:Y *638:8 47.7706 
2 *638:8 *1566:B 45.6633 
*END

*D_NET *639 2.3206e-05
*CONN
*I *1568:B I *D AO21x2_ASAP7_75t_R
*I *1567:Y O *D NOR2x2_ASAP7_75t_R
*CAP
1 *1568:B 2.32303e-06
2 *1567:Y 5.33884e-06
3 *639:8 7.66188e-06
4 *1568:B *1015:94 2.20493e-06
5 *639:8 *702:23 0
6 *639:8 *1015:79 5.67735e-06
*RES
1 *1567:Y *639:8 38.9053 
2 *639:8 *1568:B 36.0045 
*END

*D_NET *640 7.85233e-05
*CONN
*I *1570:B I *D OA21x2_ASAP7_75t_R
*I *1569:Y O *D OR3x1_ASAP7_75t_R
*CAP
1 *1570:B 1.82615e-05
2 *1569:Y 9.88058e-06
3 *640:8 2.81421e-05
4 *77:49 *1570:B 0
5 *232:14 *1570:B 8.8135e-06
6 *469:25 *1570:B 1.34257e-05
7 *628:120 *1570:B 0
8 *631:151 *1570:B 0
*RES
1 *1569:Y *640:8 38.1438 
2 *640:8 *1570:B 49.6055 
*END

*D_NET *641 3.11401e-05
*CONN
*I *1572:B I *D AO21x2_ASAP7_75t_R
*I *1571:Y O *D NOR2x1_ASAP7_75t_R
*CAP
1 *1572:B 4.66092e-06
2 *1571:Y 8.16758e-06
3 *641:8 1.28285e-05
4 *641:8 *1572:A2 4.98214e-06
5 *641:8 *1015:94 5.00998e-07
*RES
1 *1571:Y *641:8 41.158 
2 *641:8 *1572:B 36.5393 
*END

*D_NET *642 6.73609e-05
*CONN
*I *1574:B I *D OA21x2_ASAP7_75t_R
*I *1573:Y O *D OR3x1_ASAP7_75t_R
*CAP
1 *1574:B 0
2 *1573:Y 2.9684e-05
3 *642:6 2.9684e-05
4 *1574:A2 *642:6 1.82733e-06
5 *232:8 *642:6 2.27522e-06
6 *628:128 *642:6 3.89037e-06
*RES
1 *1573:Y *642:6 33.7796 
2 *642:6 *1574:B 17.2 
*END

*D_NET *643 3.03626e-05
*CONN
*I *1576:B I *D AO21x2_ASAP7_75t_R
*I *1575:Y O *D NOR2x1_ASAP7_75t_R
*CAP
1 *1576:B 2.32303e-06
2 *1575:Y 9.77184e-06
3 *643:10 1.20949e-05
4 *1576:B *1015:40 2.20493e-06
5 *643:10 *1015:50 1.67815e-06
6 *107:6 *643:10 2.28976e-06
*RES
1 *1575:Y *643:10 40.5098 
2 *643:10 *1576:B 36.0045 
*END

*D_NET *644 6.77886e-05
*CONN
*I *1578:B I *D OA21x2_ASAP7_75t_R
*I *1577:Y O *D OR2x2_ASAP7_75t_R
*CAP
1 *1578:B 0
2 *1577:Y 1.95784e-05
3 *644:10 1.95784e-05
4 *78:12 *644:10 1.19507e-05
5 *233:23 *644:10 1.19507e-05
6 *277:40 *644:10 4.73041e-06
*RES
1 *1577:Y *644:10 46.3645 
2 *644:10 *1578:B 34.4 
*END

*D_NET *645 3.84449e-05
*CONN
*I *1580:B I *D OA21x2_ASAP7_75t_R
*I *1579:Y O *D NAND2x1_ASAP7_75t_R
*CAP
1 *1580:B 0
2 *1579:Y 1.22493e-05
3 *645:8 1.22493e-05
4 *645:8 *1018:38 1.34485e-05
5 *645:8 *1018:51 4.97876e-07
6 *645:8 *1068:8 0
7 *1580:A1 *645:8 0
8 *140:23 *645:8 0
*RES
1 *1579:Y *645:8 46.7897 
2 *645:8 *1580:B 34.4 
*END

*D_NET *646 3.06897e-05
*CONN
*I *1596:B I *D AO21x2_ASAP7_75t_R
*I *1595:Y O *D NOR2x1_ASAP7_75t_R
*CAP
1 *1596:B 3.65344e-06
2 *1595:Y 4.70106e-06
3 *646:8 8.3545e-06
4 *1596:B *1017:22 6.7842e-07
5 *646:8 *1017:22 1.33022e-05
6 *207:10 *646:8 0
*RES
1 *1595:Y *646:8 38.9053 
2 *646:8 *1596:B 36.0045 
*END

*D_NET *647 9.92361e-05
*CONN
*I *1598:B I *D OA21x2_ASAP7_75t_R
*I *1597:Y O *D OR3x1_ASAP7_75t_R
*CAP
1 *1598:B 9.72955e-06
2 *1597:Y 1.0152e-05
3 *647:8 1.98815e-05
4 *1598:B *821:12 1.62434e-05
5 *1598:B *999:10 5.51397e-07
6 *185:10 *647:8 0
7 *207:25 *647:8 0
8 *305:14 *1598:B 2.20493e-06
9 *583:48 *1598:B 4.04733e-05
*RES
1 *1597:Y *647:8 40.0317 
2 *647:8 *1598:B 46.701 
*END

*D_NET *648 6.65605e-05
*CONN
*I *1600:B I *D AO21x1_ASAP7_75t_R
*I *1599:Y O *D AND2x2_ASAP7_75t_R
*CAP
1 *1600:B 2.13614e-05
2 *1599:Y 2.13614e-05
3 *1600:B *765:20 1.43292e-05
4 *237:10 *1600:B 3.65467e-06
5 *399:20 *1600:B 5.85387e-06
*RES
1 *1599:Y *1600:B 46.701 
*END

*D_NET *649 7.68177e-05
*CONN
*I *1602:B I *D OA21x2_ASAP7_75t_R
*I *1601:Y O *D OR3x1_ASAP7_75t_R
*CAP
1 *1602:B 4.83042e-06
2 *1601:Y 1.60944e-05
3 *649:8 2.09248e-05
4 *649:8 *721:24 1.40384e-05
5 *649:8 *721:45 1.908e-06
6 *1602:A2 *1602:B 1.36155e-06
7 *237:45 *649:8 0
8 *238:8 *649:8 0
9 *238:27 *649:8 7.89306e-06
10 *239:10 *649:8 0
11 *239:24 *649:8 8.3785e-06
12 *554:10 *649:8 1.38864e-06
*RES
1 *1601:Y *649:8 49.6055 
2 *649:8 *1602:B 37.0741 
*END

*D_NET *650 0.000107319
*CONN
*I *1604:B I *D AO21x1_ASAP7_75t_R
*I *1603:Y O *D OA21x2_ASAP7_75t_R
*CAP
1 *1604:B 1.24289e-05
2 *1603:Y 3.42766e-05
3 *650:10 4.67055e-05
4 *650:10 *1603:B 2.6409e-06
5 *330:8 *1604:B 6.10603e-06
6 *330:10 *650:10 6.33206e-07
7 *502:23 *650:10 3.16603e-06
8 *507:51 *650:10 1.36155e-06
*RES
1 *1603:Y *650:10 49.5168 
2 *650:10 *1604:B 43.492 
*END

*D_NET *651 4.94063e-05
*CONN
*I *1606:B I *D AOI21x1_ASAP7_75t_R
*I *1605:Y O *D NOR2x2_ASAP7_75t_R
*CAP
1 *1606:B 3.87317e-06
2 *1605:Y 1.23739e-05
3 *651:10 1.62471e-05
4 *651:10 *1008:10 5.37866e-07
5 *651:10 *1081:50 2.13376e-07
6 *651:10 *1113:10 0
7 *253:16 *651:10 1.6161e-05
*RES
1 *1605:Y *651:10 42.7058 
2 *651:10 *1606:B 36.0045 
*END

*D_NET *652 3.9067e-05
*CONN
*I *1608:B I *D AO21x2_ASAP7_75t_R
*I *1607:Y O *D NOR2x1_ASAP7_75t_R
*CAP
1 *1608:B 7.89375e-06
2 *1607:Y 9.82366e-06
3 *652:8 1.77174e-05
4 *652:8 *1608:A2 0
5 *241:8 *1608:B 3.13426e-06
6 *612:116 *652:8 4.97876e-07
*RES
1 *1607:Y *652:8 41.158 
2 *652:8 *1608:B 39.7482 
*END

*D_NET *653 5.20538e-05
*CONN
*I *1610:B I *D OA21x2_ASAP7_75t_R
*I *1609:Y O *D OR3x1_ASAP7_75t_R
*CAP
1 *1610:B 0
2 *1609:Y 2.32645e-05
3 *653:10 2.32645e-05
4 *653:10 *830:10 2.74606e-06
5 *653:10 *1005:12 2.77876e-06
*RES
1 *1609:Y *653:10 46.3645 
2 *653:10 *1610:B 34.4 
*END

*D_NET *614 0.000987794
*CONN
*P imagem_in[0] I
*I *1533:A I *D BUFx2_ASAP7_75t_R
*CAP
1 imagem_in[0] 6.32361e-06
2 *1533:A 0
3 *614:31 2.51919e-06
4 *614:25 1.26024e-05
5 *614:13 0.000187807
6 *614:11 0.000184047
7 *614:11 *919:11 7.07944e-06
8 *614:11 *948:11 7.26931e-06
9 *614:13 *885:21 0
10 *614:13 *919:21 5.67756e-06
11 *614:13 *948:13 0.000574469
12 *614:13 *960:24 0
13 *614:13 *965:24 0
14 *614:31 *794:8 0
*RES
1 imagem_in[0] *614:11 23.4669 
2 *614:11 *614:13 70.0532 
3 *614:13 *614:25 34.6839 
4 *614:25 *614:31 35.8079 
5 *614:31 *1533:A 17.2 
*END

*D_NET *613 0.000458815
*CONN
*P imagem_in[100] I
*I *1532:A I *D BUFx2_ASAP7_75t_R
*CAP
1 imagem_in[100] 7.97572e-05
2 *1532:A 0
3 *613:27 1.10584e-05
4 *613:21 4.58295e-05
5 *613:13 0.000114528
6 *613:13 *845:11 2.64633e-06
7 *613:13 *845:17 0
8 *613:13 *956:13 0
9 *613:21 *955:27 0
10 *613:21 *956:21 0
11 *461:11 *613:13 1.23832e-05
12 *461:17 *613:13 9.54975e-06
13 *530:25 *613:13 0.000183063
*RES
1 imagem_in[100] *613:13 48.4779 
2 *613:13 *613:21 34.4897 
3 *613:21 *613:27 41.2519 
4 *613:27 *1532:A 17.2 
*END

*D_NET *531 0.00045997
*CONN
*P imagem_in[101] I
*I *1413:A I *D BUFx3_ASAP7_75t_R
*CAP
1 imagem_in[101] 6.21706e-06
2 *1413:A 0
3 *531:27 1.59331e-05
4 *531:19 6.65511e-05
5 *531:11 5.68351e-05
6 *531:11 *844:11 2.64633e-06
7 *531:19 *841:19 1.03431e-06
8 *531:19 *842:17 4.35501e-06
9 *531:19 *844:19 0.000239539
10 *531:19 *956:13 0
11 *531:19 *957:13 0
12 *531:19 *958:13 5.0233e-05
13 *531:27 *804:10 1.00899e-06
14 *531:27 *844:25 1.08658e-05
15 *531:27 *957:21 0
16 *531:27 *958:23 3.88563e-07
17 *530:17 *531:11 2.98459e-06
18 *530:17 *531:19 1.37846e-06
*RES
1 imagem_in[101] *531:11 26.4296 
2 *531:11 *531:19 49.4871 
3 *531:19 *531:27 40.818 
4 *531:27 *1413:A 17.2 
*END

*D_NET *530 0.000473603
*CONN
*P imagem_in[102] I
*I *1412:A I *D BUFx6f_ASAP7_75t_R
*CAP
1 imagem_in[102] 5.25637e-05
2 *1412:A 1.92157e-05
3 *530:35 2.46172e-05
4 *530:25 2.64646e-05
5 *530:17 7.36267e-05
6 *530:17 *531:11 2.98459e-06
7 *530:17 *531:19 1.37846e-06
8 *530:17 *844:11 2.66292e-06
9 *530:17 *957:13 1.36851e-06
10 *530:17 *958:13 1.01304e-05
11 *530:25 *613:13 0.000183063
12 *460:13 *1412:A 0
13 *461:17 *530:25 7.55277e-05
*RES
1 imagem_in[102] *530:17 46.4438 
2 *530:17 *530:25 38.3511 
3 *530:25 *530:35 48.0728 
4 *530:35 *1412:A 30.0358 
*END

*D_NET *508 0.000169778
*CONN
*P imagem_in[103] I
*I *1383:A I *D BUFx12f_ASAP7_75t_R
*CAP
1 imagem_in[103] 4.54242e-05
2 *1383:A 0
3 *508:13 3.94648e-05
4 *508:9 8.4889e-05
5 *508:9 *845:11 0
6 *508:9 *881:11 0
*RES
1 imagem_in[103] *508:9 42.8124 
2 *508:9 *508:13 48.2198 
3 *508:13 *1383:A 17.2 
*END

*D_NET *461 0.000555449
*CONN
*P imagem_in[104] I
*I *1294:A I *D BUFx2_ASAP7_75t_R
*CAP
1 imagem_in[104] 8.73398e-06
2 *1294:A 0
3 *461:27 4.68044e-06
4 *461:17 7.02025e-05
5 *461:11 7.42561e-05
6 *461:11 *613:13 1.23832e-05
7 *461:11 *845:11 5.61884e-06
8 *461:11 *955:11 2.66115e-05
9 *461:17 *530:25 7.55277e-05
10 *461:17 *613:13 9.54975e-06
11 *461:17 *845:17 1.42681e-05
12 *461:17 *955:19 0.000244453
13 *461:27 *801:18 4.13034e-06
14 *460:9 *461:11 5.034e-06
*RES
1 imagem_in[104] *461:11 30.1823 
2 *461:11 *461:17 43.2373 
3 *461:17 *461:27 48.6139 
4 *461:27 *1294:A 17.2 
*END

*D_NET *460 0.000176842
*CONN
*P imagem_in[105] I
*I *1293:A I *D BUFx2_ASAP7_75t_R
*CAP
1 imagem_in[105] 4.30001e-05
2 *1293:A 0
3 *460:13 3.91931e-05
4 *460:9 8.21933e-05
5 *460:9 *461:11 5.034e-06
6 *460:9 *955:11 7.42167e-06
7 *460:9 *958:13 0
8 *460:13 *1412:A 0
*RES
1 imagem_in[105] *460:9 41.1229 
2 *460:9 *460:13 48.7547 
3 *460:13 *1293:A 17.2 
*END

*D_NET *435 0.000266503
*CONN
*P imagem_in[106] I
*I *1259:A I *D BUFx2_ASAP7_75t_R
*CAP
1 imagem_in[106] 5.94882e-05
2 *1259:A 0
3 *435:27 2.57427e-06
4 *435:21 3.08924e-05
5 *435:13 8.78063e-05
6 *435:13 imagem_out[22] 0
7 *435:13 *840:11 2.98459e-06
8 *435:13 *840:13 8.02102e-05
9 *435:13 *841:19 3.46375e-07
10 *435:13 *974:24 0
11 *435:21 *841:29 2.17295e-06
12 *435:21 *844:25 2.77387e-08
13 *435:21 *958:23 0
14 *435:27 *841:29 0
*RES
1 imagem_in[106] *435:13 45.5893 
2 *435:13 *435:21 35.3828 
3 *435:21 *435:27 36.3711 
4 *435:27 *1259:A 17.2 
*END

*D_NET *840 0.000534984
*CONN
*P imagem_in[107] I
*I *1805:A I *D BUFx2_ASAP7_75t_R
*CAP
1 imagem_in[107] 5.25645e-06
2 *1805:A 1.29628e-06
3 *840:23 2.41087e-05
4 *840:13 0.000114797
5 *840:11 9.72412e-05
6 *1805:A *1103:10 8.30021e-08
7 *840:11 *841:11 2.64633e-06
8 *840:11 *842:11 6.6573e-07
9 *840:13 *841:19 0.000102411
10 *840:13 *842:17 1.68686e-05
11 *840:13 *974:24 0
12 *840:13 *1020:28 1.08558e-06
13 *840:23 *1020:38 1.14888e-05
14 *435:13 *840:11 2.98459e-06
15 *435:13 *840:13 8.02102e-05
16 *685:30 *840:13 7.25359e-05
17 *686:14 *1805:A 8.30021e-08
18 *687:37 *840:23 1.22076e-06
*RES
1 imagem_in[107] *840:11 26.0798 
2 *840:11 *840:13 39.1548 
3 *840:13 *840:23 49.7188 
4 *840:23 *1805:A 35.2447 
*END

*D_NET *841 0.000493048
*CONN
*P imagem_in[108] I
*I *1806:A I *D BUFx2_ASAP7_75t_R
*CAP
1 imagem_in[108] 4.68713e-06
2 *1806:A 0
3 *841:29 1.75978e-05
4 *841:19 5.07295e-05
5 *841:11 3.78189e-05
6 *841:11 *842:11 2.98459e-06
7 *841:19 *842:17 0.000250096
8 *841:29 *844:25 9.80189e-06
9 *435:13 *841:19 3.46375e-07
10 *435:21 *841:29 2.17295e-06
11 *435:27 *841:29 0
12 *531:19 *841:19 1.03431e-06
13 *685:10 *841:29 1.07204e-05
14 *840:11 *841:11 2.64633e-06
15 *840:13 *841:19 0.000102411
*RES
1 imagem_in[108] *841:11 25.6698 
2 *841:11 *841:19 49.4871 
3 *841:19 *841:29 43.5076 
4 *841:29 *1806:A 17.2 
*END

*D_NET *842 0.000676246
*CONN
*P imagem_in[109] I
*I *1807:A I *D BUFx2_ASAP7_75t_R
*CAP
1 imagem_in[109] 4.12736e-06
2 *1807:A 0
3 *842:27 3.11811e-06
4 *842:17 6.93435e-05
5 *842:11 7.03527e-05
6 *842:11 *844:11 5.37225e-06
7 *842:17 *844:19 0.000238563
8 *156:23 *842:27 3.09718e-06
9 *531:19 *842:17 4.35501e-06
10 *685:30 *842:17 6.0126e-06
11 *687:12 *842:27 1.28946e-06
12 *840:11 *842:11 6.6573e-07
13 *840:13 *842:17 1.68686e-05
14 *841:11 *842:11 2.98459e-06
15 *841:19 *842:17 0.000250096
*RES
1 imagem_in[109] *842:11 26.0798 
2 *842:11 *842:17 45.7845 
3 *842:17 *842:27 48.0441 
4 *842:27 *1807:A 17.2 
*END

*D_NET *843 0.000691665
*CONN
*P imagem_in[10] I
*I *1808:A I *D BUFx2_ASAP7_75t_R
*CAP
1 imagem_in[10] 1.03915e-05
2 *1808:A 0
3 *843:25 1.03991e-05
4 *843:13 0.000174102
5 *843:11 0.000174095
6 *843:11 imagem_out[5] 0
7 *843:11 *893:11 2.32218e-06
8 *843:13 *864:17 0
9 *843:13 *882:13 0.000278432
10 *843:13 *893:13 0
11 *843:25 *893:25 0
12 *831:18 *843:25 1.38386e-06
13 *831:28 *843:13 4.05388e-05
*RES
1 imagem_in[10] *843:11 27.4932 
2 *843:11 *843:13 52.2698 
3 *843:13 *843:25 44.8796 
4 *843:25 *1808:A 34.4 
*END

*D_NET *844 0.00066377
*CONN
*P imagem_in[110] I
*I *1809:A I *D BUFx2_ASAP7_75t_R
*CAP
1 imagem_in[110] 7.6745e-06
2 *1809:A 0
3 *844:25 3.65684e-05
4 *844:19 6.43768e-05
5 *844:11 3.54828e-05
6 *156:23 *844:25 0
7 *435:21 *844:25 2.77387e-08
8 *530:17 *844:11 2.66292e-06
9 *531:11 *844:11 2.64633e-06
10 *531:19 *844:19 0.000239539
11 *531:27 *844:25 1.08658e-05
12 *684:12 *844:25 0
13 *685:10 *844:25 0
14 *685:20 *844:25 4.49492e-06
15 *687:8 *844:25 1.23321e-06
16 *687:12 *844:25 4.46143e-06
17 *841:29 *844:25 9.80189e-06
18 *842:11 *844:11 5.37225e-06
19 *842:17 *844:19 0.000238563
*RES
1 imagem_in[110] *844:11 27.5533 
2 *844:11 *844:19 48.3842 
3 *844:19 *844:25 33.9959 
4 *844:25 *1809:A 34.4 
*END

*D_NET *845 0.000408842
*CONN
*P imagem_in[111] I
*I *1810:A I *D BUFx2_ASAP7_75t_R
*CAP
1 imagem_in[111] 1.10641e-05
2 *1810:A 0
3 *845:27 3.8353e-06
4 *845:17 0.000127134
5 *845:11 0.000134363
6 *845:11 *955:11 3.23631e-06
7 *845:17 *881:13 0
8 *845:17 *955:19 0.000100411
9 *461:11 *845:11 5.61884e-06
10 *461:17 *845:17 1.42681e-05
11 *508:9 *845:11 0
12 *613:13 *845:11 2.64633e-06
13 *613:13 *845:17 0
14 *683:8 *845:27 1.01458e-06
15 *683:12 *845:27 2.69317e-06
16 *801:18 *845:27 2.55746e-06
*RES
1 imagem_in[111] *845:11 29.3166 
2 *845:11 *845:17 46.2403 
3 *845:17 *845:27 48.6581 
4 *845:27 *1810:A 17.2 
*END

*D_NET *846 0.000203923
*CONN
*P imagem_in[112] I
*I *1811:A I *D BUFx2_ASAP7_75t_R
*CAP
1 imagem_in[112] 2.66281e-05
2 *1811:A 0
3 *846:13 4.53082e-05
4 *846:11 4.53082e-05
5 *846:9 2.66281e-05
6 *846:9 *855:7 4.97671e-05
7 *846:9 *862:11 3.60604e-07
8 *846:13 *1820:A 0
9 *692:6 *846:13 9.9223e-06
*RES
1 imagem_in[112] *846:9 36.2797 
2 *846:9 *846:11 17.2 
3 *846:11 *846:13 40.1119 
4 *846:13 *1811:A 17.2 
*END

*D_NET *847 0.000276067
*CONN
*P imagem_in[113] I
*I *1812:A I *D BUFx2_ASAP7_75t_R
*CAP
1 imagem_in[113] 1.69927e-05
2 *1812:A 0
3 *847:27 5.63007e-06
4 *847:17 0.000118718
5 *847:11 0.000130081
6 *847:11 *848:9 2.32218e-06
7 *847:11 *856:9 2.32218e-06
8 *847:17 *857:17 0
*RES
1 imagem_in[113] *847:11 31.1399 
2 *847:11 *847:17 39.816 
3 *847:17 *847:27 48.3401 
4 *847:27 *1812:A 17.2 
*END

*D_NET *848 0.000185771
*CONN
*P imagem_in[114] I
*I *1813:A I *D BUFx2_ASAP7_75t_R
*CAP
1 imagem_in[114] 2.90173e-05
2 *1813:A 0
3 *848:13 4.85106e-05
4 *848:11 4.85106e-05
5 *848:9 2.90173e-05
6 *848:9 *856:9 2.54087e-05
7 *848:9 *857:11 2.98459e-06
8 *848:13 *856:13 0
9 *847:11 *848:9 2.32218e-06
*RES
1 imagem_in[114] *848:9 36.4674 
2 *848:9 *848:11 17.2 
3 *848:11 *848:13 40.1119 
4 *848:13 *1813:A 17.2 
*END

*D_NET *849 0.000382595
*CONN
*P imagem_in[115] I
*I *1814:A I *D BUFx2_ASAP7_75t_R
*CAP
1 imagem_in[115] 1.32569e-05
2 *1814:A 0
3 *849:29 1.3664e-05
4 *849:21 5.72359e-05
5 *849:11 5.68288e-05
6 *849:11 *858:5 3.42623e-06
7 *849:11 *938:11 1.29412e-05
8 *849:11 *946:11 9.83883e-06
9 *849:21 *852:13 0
10 *849:21 *938:21 0.000102176
11 *849:21 *946:17 0.000101499
12 *849:21 *950:19 0
13 *849:29 *938:29 1.0044e-05
14 *849:29 *941:13 8.42016e-07
15 *704:20 *849:29 0
16 *830:10 *849:29 8.42016e-07
*RES
1 imagem_in[115] *849:11 24.9123 
2 *849:11 *849:21 49.3916 
3 *849:21 *849:29 34.74 
4 *849:29 *1814:A 34.4 
*END

*D_NET *850 0.00048142
*CONN
*P imagem_in[116] I
*I *1815:A I *D BUFx2_ASAP7_75t_R
*CAP
1 imagem_in[116] 4.85721e-05
2 *1815:A 0
3 *850:31 9.25051e-06
4 *850:25 3.49861e-05
5 *850:13 7.43077e-05
6 *850:13 *851:11 2.6451e-06
7 *850:13 *851:21 0.000224037
8 *850:13 *853:13 0
9 *850:13 *859:5 3.42623e-06
10 *850:13 *860:9 3.42623e-06
11 *850:13 *980:24 6.70313e-05
12 *850:13 *981:24 0
13 *850:13 *983:24 3.76273e-06
14 *850:25 *851:21 3.82337e-06
15 *850:25 *953:17 2.53875e-07
16 *850:31 *944:13 0
17 *850:31 *951:13 0
18 *850:31 *953:23 8.29207e-07
19 *696:20 *850:25 0
20 *797:10 *850:31 5.06819e-06
*RES
1 imagem_in[116] *850:13 48.9363 
2 *850:13 *850:25 42.0374 
3 *850:25 *850:31 42.0027 
4 *850:31 *1815:A 17.2 
*END

*D_NET *851 0.000540747
*CONN
*P imagem_in[117] I
*I *1816:A I *D BUFx12f_ASAP7_75t_R
*CAP
1 imagem_in[117] 1.99843e-05
2 *1816:A 0
3 *851:29 2.13803e-05
4 *851:21 5.86563e-05
5 *851:11 5.72604e-05
6 *851:11 imagem_out[28] 2.9066e-08
7 *851:11 imagem_out[29] 6.40841e-06
8 *851:11 *944:9 9.89886e-06
9 *851:11 *980:36 6.92774e-06
10 *851:21 *859:5 8.39694e-06
11 *851:21 *983:24 9.18413e-05
12 *851:29 *859:13 1.8049e-05
13 *851:29 *954:13 1.14082e-05
14 *697:16 *851:29 0
15 *850:13 *851:11 2.6451e-06
16 *850:13 *851:21 0.000224037
17 *850:25 *851:21 3.82337e-06
*RES
1 imagem_in[117] *851:11 27.3435 
2 *851:11 *851:21 47.7086 
3 *851:21 *851:29 39.0975 
4 *851:29 *1816:A 34.4 
*END

*D_NET *852 0.000566927
*CONN
*P imagem_in[118] I
*I *1817:A I *D BUFx6f_ASAP7_75t_R
*CAP
1 imagem_in[118] 3.1513e-05
2 *1817:A 0
3 *852:33 1.07962e-05
4 *852:25 3.28839e-05
5 *852:13 0.000224907
6 *852:11 0.000234333
7 *852:11 imagem_out[30] 3.84312e-06
8 *852:11 *861:11 6.81379e-06
9 *852:13 *861:17 0
10 *852:13 *946:17 0
11 *315:10 *852:33 5.64505e-06
12 *624:20 *852:25 1.61918e-05
13 *628:32 *852:25 0
14 *707:32 *852:13 0
15 *849:21 *852:13 0
*RES
1 imagem_in[118] *852:11 28.3336 
2 *852:11 *852:13 55.6423 
3 *852:13 *852:25 38.5685 
4 *852:25 *852:33 39.0452 
5 *852:33 *1817:A 17.2 
*END

*D_NET *853 0.00106197
*CONN
*P imagem_in[119] I
*I *1818:A I *D BUFx12f_ASAP7_75t_R
*CAP
1 imagem_in[119] 4.363e-06
2 *1818:A 0
3 *853:31 1.86538e-06
4 *853:25 3.711e-05
5 *853:13 0.000208714
6 *853:11 0.000177833
7 *853:11 imagem_out[30] 2.96649e-06
8 *853:11 *859:5 3.84312e-06
9 *853:11 *954:5 3.42623e-06
10 *853:13 *861:17 0
11 *853:13 *945:17 8.84972e-05
12 *853:13 *983:24 0.000121593
13 *696:24 *853:13 0
14 *705:26 *853:13 0.000114769
15 *706:28 *853:13 0.000296989
16 *850:13 *853:13 0
*RES
1 imagem_in[119] *853:11 22.2513 
2 *853:11 *853:13 83.6635 
3 *853:13 *853:25 40.6753 
4 *853:25 *853:31 35.4325 
5 *853:31 *1818:A 17.2 
*END

*D_NET *854 0.000612284
*CONN
*P imagem_in[11] I
*I *1819:A I *D BUFx2_ASAP7_75t_R
*CAP
1 imagem_in[11] 1.97665e-05
2 *1819:A 0
3 *854:25 2.13692e-05
4 *854:17 7.64413e-05
5 *854:11 7.48387e-05
6 *854:11 *865:13 1.19022e-05
7 *854:11 *926:9 2.32218e-06
8 *854:17 *863:17 0.000106525
9 *854:17 *865:13 0.000221372
10 *854:25 *865:21 2.04224e-05
11 *854:25 *865:27 0
12 *711:14 *854:25 5.67952e-05
13 *712:18 *854:25 5.29654e-07
*RES
1 imagem_in[11] *854:11 31.7477 
2 *854:11 *854:17 39.7768 
3 *854:17 *854:25 40.2304 
4 *854:25 *1819:A 34.4 
*END

*D_NET *855 0.000246663
*CONN
*P imagem_in[120] I
*I *1820:A I *D BUFx2_ASAP7_75t_R
*CAP
1 imagem_in[120] 4.64768e-05
2 *1820:A 4.22309e-05
3 *855:11 5.19713e-05
4 *855:7 5.62172e-05
5 *846:9 *855:7 4.97671e-05
6 *846:13 *1820:A 0
*RES
1 imagem_in[120] *855:7 45.1746 
2 *855:7 *855:11 25.1782 
3 *855:11 *1820:A 45.5457 
*END

*D_NET *856 0.000233376
*CONN
*P imagem_in[121] I
*I *1821:A I *D BUFx2_ASAP7_75t_R
*CAP
1 imagem_in[121] 2.97543e-05
2 *1821:A 0
3 *856:13 7.21153e-05
4 *856:11 7.21153e-05
5 *856:9 2.97543e-05
6 *702:10 *856:13 1.90634e-06
7 *847:11 *856:9 2.32218e-06
8 *848:9 *856:9 2.54087e-05
9 *848:13 *856:13 0
*RES
1 imagem_in[121] *856:9 36.2797 
2 *856:9 *856:11 17.2 
3 *856:11 *856:13 50.8084 
4 *856:13 *1821:A 17.2 
*END

*D_NET *857 0.000326475
*CONN
*P imagem_in[122] I
*I *1822:A I *D BUFx2_ASAP7_75t_R
*CAP
1 imagem_in[122] 4.1584e-06
2 *1822:A 0
3 *857:27 4.42767e-06
4 *857:17 0.000156315
5 *857:11 0.000156045
6 *857:27 *1015:79 0
7 *110:12 *857:27 2.77387e-08
8 *702:23 *857:27 2.516e-06
9 *847:17 *857:17 0
10 *848:9 *857:11 2.98459e-06
*RES
1 imagem_in[122] *857:11 25.214 
2 *857:11 *857:17 45.7845 
3 *857:17 *857:27 48.0728 
4 *857:27 *1822:A 17.2 
*END

*D_NET *858 0.00020403
*CONN
*P imagem_in[123] I
*I *1823:A I *D BUFx2_ASAP7_75t_R
*CAP
1 imagem_in[123] 5.92438e-05
2 *1823:A 0
3 *858:13 1.03878e-05
4 *858:5 6.96316e-05
5 *858:5 *938:11 2.70341e-06
6 *858:5 *941:7 5.16106e-05
7 *858:5 *946:11 6.63428e-06
8 *858:13 *938:29 3.92018e-07
9 *830:10 *858:13 0
10 *849:11 *858:5 3.42623e-06
*RES
1 imagem_in[123] *858:5 40.7219 
2 *858:5 *858:13 33.7594 
3 *858:13 *1823:A 34.4 
*END

*D_NET *859 0.000264901
*CONN
*P imagem_in[124] I
*I *1824:A I *D BUFx2_ASAP7_75t_R
*CAP
1 imagem_in[124] 4.96405e-05
2 *1824:A 0
3 *859:13 1.64308e-05
4 *859:5 6.60714e-05
5 *859:5 *860:9 2.41034e-05
6 *859:5 *944:9 0
7 *859:5 *954:5 5.74784e-05
8 *859:13 *860:13 0
9 *859:13 *954:13 0
10 *1132:A2 *859:13 4.76924e-06
11 *706:8 *859:13 1.26923e-05
12 *850:13 *859:5 3.42623e-06
13 *851:21 *859:5 8.39694e-06
14 *851:29 *859:13 1.8049e-05
15 *853:11 *859:5 3.84312e-06
*RES
1 imagem_in[124] *859:5 40.7219 
2 *859:5 *859:13 41.0805 
3 *859:13 *1824:A 34.4 
*END

*D_NET *860 0.000217782
*CONN
*P imagem_in[125] I
*I *1825:A I *D BUFx2_ASAP7_75t_R
*CAP
1 imagem_in[125] 2.54881e-05
2 *1825:A 3.25747e-06
3 *860:13 4.47793e-05
4 *860:11 4.15218e-05
5 *860:9 2.54881e-05
6 *860:9 *944:9 4.97177e-05
7 *860:13 *944:13 0
8 *850:13 *860:9 3.42623e-06
9 *859:5 *860:9 2.41034e-05
10 *859:13 *860:13 0
*RES
1 imagem_in[125] *860:9 33.1846 
2 *860:9 *860:11 17.2 
3 *860:11 *860:13 37.826 
4 *860:13 *1825:A 36.0045 
*END

*D_NET *861 0.000342543
*CONN
*P imagem_in[126] I
*I *1826:A I *D BUFx2_ASAP7_75t_R
*CAP
1 imagem_in[126] 7.56132e-06
2 *1826:A 0
3 *861:29 5.7012e-06
4 *861:17 0.000123332
5 *861:11 0.000125193
6 *861:11 imagem_out[30] 1.86022e-06
7 *861:11 imagem_out[31] 0
8 *861:17 *945:17 6.77699e-05
9 *352:26 *861:17 4.31106e-06
10 *705:26 *861:17 0
11 *852:11 *861:11 6.81379e-06
12 *852:13 *861:17 0
13 *853:13 *861:17 0
*RES
1 imagem_in[126] *861:11 23.0867 
2 *861:11 *861:17 49.0584 
3 *861:17 *861:29 42.6636 
4 *861:29 *1826:A 34.4 
*END

*D_NET *862 0.000407205
*CONN
*P imagem_in[127] I
*I *1827:A I *D BUFx2_ASAP7_75t_R
*CAP
1 imagem_in[127] 5.36192e-06
2 *1827:A 0
3 *862:27 4.57036e-06
4 *862:21 3.21299e-05
5 *862:13 0.000190795
6 *862:11 0.000168598
7 *2022:A *862:27 3.47867e-06
8 *701:12 *862:21 0
9 *701:20 *862:21 0
10 *701:33 *862:21 5.79064e-07
11 *708:18 *862:21 1.33146e-06
12 *846:9 *862:11 3.60604e-07
*RES
1 imagem_in[127] *862:11 25.214 
2 *862:11 *862:13 38.5846 
3 *862:13 *862:21 33.8196 
4 *862:21 *862:27 38.0606 
5 *862:27 *1827:A 17.2 
*END

*D_NET *863 0.000446877
*CONN
*P imagem_in[12] I
*I *1828:A I *D BUFx2_ASAP7_75t_R
*CAP
1 imagem_in[12] 2.70414e-06
2 *1828:A 0
3 *863:25 1.08889e-05
4 *863:17 8.06988e-05
5 *863:11 7.2514e-05
6 *863:11 *866:11 5.3422e-06
7 *863:11 *937:11 2.98459e-06
8 *863:17 *866:17 0.000130416
9 *863:17 *915:17 0
10 *863:25 *1018:20 1.17606e-06
11 *710:16 *863:25 0
12 *711:34 *863:25 3.1168e-07
13 *712:18 *863:25 1.02711e-05
14 *717:16 *863:25 2.30451e-05
15 *854:17 *863:17 0.000106525
*RES
1 imagem_in[12] *863:11 25.214 
2 *863:11 *863:17 46.5442 
3 *863:17 *863:25 35.5262 
4 *863:25 *1828:A 34.4 
*END

*D_NET *864 0.000611793
*CONN
*P imagem_in[13] I
*I *1829:A I *D BUFx2_ASAP7_75t_R
*CAP
1 imagem_in[13] 5.09635e-06
2 *1829:A 0
3 *864:25 1.64584e-05
4 *864:17 7.46058e-05
5 *864:11 6.32438e-05
6 *864:11 *882:9 2.32218e-06
7 *864:11 *904:9 2.98459e-06
8 *864:17 *893:13 0.000132174
9 *864:17 *915:17 3.15969e-05
10 *864:17 *937:19 0.000250708
11 *864:25 *915:27 0
12 *864:25 *1018:26 1.98924e-06
13 *864:25 *1081:63 0
14 *761:10 *864:25 0
15 *761:18 *864:25 3.06142e-05
16 *843:13 *864:17 0
*RES
1 imagem_in[13] *864:11 25.8218 
2 *864:11 *864:17 45.9364 
3 *864:17 *864:25 38.0682 
4 *864:25 *1829:A 34.4 
*END

*D_NET *865 0.000436603
*CONN
*P imagem_in[14] I
*I *1830:A I *D BUFx2_ASAP7_75t_R
*CAP
1 imagem_in[14] 6.25348e-05
2 *1830:A 0
3 *865:27 2.38742e-06
4 *865:21 2.39862e-05
5 *865:13 8.41336e-05
6 *865:13 *926:9 4.03334e-06
7 *865:13 *959:7 4.03334e-06
8 *711:14 *865:21 1.79776e-06
9 *805:18 *865:21 0
10 *854:11 *865:13 1.19022e-05
11 *854:17 *865:13 0.000221372
12 *854:25 *865:21 2.04224e-05
13 *854:25 *865:27 0
*RES
1 imagem_in[14] *865:13 49.2293 
2 *865:13 *865:21 32.8434 
3 *865:21 *865:27 35.8079 
4 *865:27 *1830:A 17.2 
*END

*D_NET *866 0.000438885
*CONN
*P imagem_in[15] I
*I *1831:A I *D BUFx2_ASAP7_75t_R
*CAP
1 imagem_in[15] 1.54206e-05
2 *1831:A 0
3 *866:27 5.60191e-06
4 *866:17 7.46453e-05
5 *866:11 8.44641e-05
6 *866:11 *937:11 5.22771e-06
7 *866:11 *959:7 4.70985e-06
8 *866:17 *915:17 7.20566e-05
9 *700:16 *866:17 2.51495e-06
10 *700:16 *866:27 6.18765e-06
11 *709:8 *866:27 7.81559e-07
12 *761:18 *866:27 0
13 *805:20 *866:17 3.15171e-05
14 *863:11 *866:11 5.3422e-06
15 *863:17 *866:17 0.000130416
*RES
1 imagem_in[15] *866:11 30.1823 
2 *866:11 *866:17 45.6701 
3 *866:17 *866:27 49.3074 
4 *866:27 *1831:A 17.2 
*END

*D_NET *867 0.000308903
*CONN
*P imagem_in[16] I
*I *1832:A I *D BUFx2_ASAP7_75t_R
*CAP
1 imagem_in[16] 6.43371e-05
2 *1832:A 0
3 *867:27 1.39657e-05
4 *867:21 4.60135e-05
5 *867:13 9.63849e-05
6 *867:13 *869:17 0
7 *867:13 *873:13 0
8 *867:13 *877:11 5.31544e-06
9 *867:13 *877:19 7.99013e-05
10 *867:13 *878:11 2.98459e-06
11 *867:21 *877:27 0
12 *722:23 *867:27 0
*RES
1 imagem_in[16] *867:13 44.9815 
2 *867:13 *867:21 35.5348 
3 *867:21 *867:27 43.1291 
4 *867:27 *1832:A 17.2 
*END

*D_NET *868 0.000166195
*CONN
*P imagem_in[17] I
*I *1833:A I *D BUFx2_ASAP7_75t_R
*CAP
1 imagem_in[17] 3.79712e-05
2 *1833:A 0
3 *868:13 3.77045e-05
4 *868:9 7.56758e-05
5 *868:9 *870:11 5.034e-06
6 *868:9 *876:9 0
7 *868:9 *879:11 9.80934e-06
*RES
1 imagem_in[17] *868:9 38.1194 
2 *868:9 *868:13 48.7547 
3 *868:13 *1833:A 17.2 
*END

*D_NET *869 0.000569465
*CONN
*P imagem_in[18] I
*I *1834:A I *D BUFx2_ASAP7_75t_R
*CAP
1 imagem_in[18] 5.65042e-06
2 *1834:A 0
3 *869:27 6.11137e-06
4 *869:17 0.000113641
5 *869:11 0.00011318
6 *869:11 *870:11 2.64633e-06
7 *869:17 *870:17 0.000310868
8 *869:17 *878:17 5.31753e-06
9 *716:28 *869:17 1.20501e-05
10 *723:16 *869:27 0
11 *724:10 *869:27 0
12 *867:13 *869:17 0
*RES
1 imagem_in[18] *869:11 25.6698 
2 *869:11 *869:17 49.5097 
3 *869:17 *869:27 49.0114 
4 *869:27 *1834:A 17.2 
*END

*D_NET *870 0.000717439
*CONN
*P imagem_in[19] I
*I *1835:A I *D BUFx2_ASAP7_75t_R
*CAP
1 imagem_in[19] 7.95389e-06
2 *1835:A 3.04152e-06
3 *870:25 9.40578e-06
4 *870:17 5.43384e-05
5 *870:11 5.5928e-05
6 *870:11 *879:11 7.42844e-07
7 *870:17 *878:17 1.38172e-05
8 *870:17 *879:19 0.000239174
9 *870:25 *1065:16 3.16624e-06
10 *714:16 *870:25 9.19798e-06
11 *725:12 *1835:A 2.12481e-06
12 *868:9 *870:11 5.034e-06
13 *869:11 *870:11 2.64633e-06
14 *869:17 *870:17 0.000310868
*RES
1 imagem_in[19] *870:11 27.1434 
2 *870:11 *870:17 43.5412 
3 *870:17 *870:25 33.205 
4 *870:25 *1835:A 36.0045 
*END

*D_NET *871 0.000265497
*CONN
*P imagem_in[1] I
*I *1836:A I *D BUFx2_ASAP7_75t_R
*CAP
1 imagem_in[1] 4.71899e-05
2 *1836:A 3.84516e-05
3 *871:11 4.83488e-05
4 *871:7 5.70872e-05
5 *1836:A *959:13 3.42616e-05
6 *871:7 *882:9 2.26903e-05
7 *871:7 *904:9 0
8 *871:7 *915:11 2.32218e-06
9 *871:7 *937:11 7.09752e-06
10 *871:7 *959:7 0
11 *871:11 *959:13 8.04825e-06
*RES
1 imagem_in[1] *871:7 45.1746 
2 *871:7 *871:11 25.5536 
3 *871:11 *1836:A 48.7547 
*END

*D_NET *872 0.000670662
*CONN
*P imagem_in[20] I
*I *1837:A I *D BUFx2_ASAP7_75t_R
*CAP
1 imagem_in[20] 7.18247e-06
2 *1837:A 0
3 *872:31 1.12522e-05
4 *872:25 1.88292e-05
5 *872:13 0.000161678
6 *872:11 0.000161284
7 *872:11 imagem_out[11] 0
8 *872:11 *907:13 1.66249e-06
9 *872:11 *908:13 6.88159e-06
10 *872:13 *907:13 0.000183444
11 *872:13 *916:21 0
12 *872:13 *962:24 0
13 *872:13 *964:24 9.67855e-05
14 *98:38 *872:25 0
15 *549:19 *872:31 4.74778e-06
16 *555:22 *872:31 2.19685e-06
17 *556:16 *872:25 1.24672e-08
18 *557:8 *872:31 5.38904e-07
19 *557:106 *872:25 0
20 *562:14 *872:31 1.41659e-05
21 *729:24 *872:13 0
*RES
1 imagem_in[20] *872:11 23.3718 
2 *872:11 *872:13 55.6423 
3 *872:13 *872:25 33.5885 
4 *872:25 *872:31 46.5081 
5 *872:31 *1837:A 17.2 
*END

*D_NET *873 0.000582873
*CONN
*P imagem_in[21] I
*I *1838:A I *D BUFx2_ASAP7_75t_R
*CAP
1 imagem_in[21] 5.83662e-06
2 *1838:A 0
3 *873:25 8.68965e-06
4 *873:13 0.000170606
5 *873:11 0.000167753
6 *873:11 *876:9 0
7 *873:11 *880:11 9.98595e-07
8 *873:13 *877:19 0
9 *873:13 *880:13 0.000166443
10 *873:13 *881:13 1.37396e-05
11 *726:28 *873:13 4.88056e-05
12 *727:10 *873:25 0
13 *867:13 *873:13 0
*RES
1 imagem_in[21] *873:11 25.8218 
2 *873:11 *873:13 57.4017 
3 *873:13 *873:25 43.5443 
4 *873:25 *1838:A 34.4 
*END

*D_NET *874 0.000974908
*CONN
*P imagem_in[22] I
*I *1839:A I *D BUFx3_ASAP7_75t_R
*CAP
1 imagem_in[22] 4.5112e-06
2 *1839:A 0
3 *874:31 1.34544e-05
4 *874:25 3.11011e-05
5 *874:13 0.000151031
6 *874:11 0.000137895
7 *874:11 *883:13 7.07944e-06
8 *874:11 *884:11 6.88159e-06
9 *874:11 *909:11 1.14496e-07
10 *874:13 *875:21 0.000254522
11 *874:13 *883:13 0
12 *874:13 *884:21 0.000223342
13 *874:13 *909:21 3.80955e-06
14 *874:13 *963:24 0
15 *874:13 *965:24 0
16 *377:8 *874:31 0
17 *470:8 *874:31 0
18 *721:45 *874:31 0
19 *729:24 *874:13 0
20 *730:24 *874:13 8.96595e-05
21 *730:36 *874:25 3.64861e-06
22 *730:48 *874:31 1.12039e-05
23 *812:28 *874:13 3.66531e-05
*RES
1 imagem_in[22] *874:11 23.0867 
2 *874:11 *874:13 62.8477 
3 *874:13 *874:25 37.0779 
4 *874:25 *874:31 45.3817 
5 *874:31 *1839:A 17.2 
*END

*D_NET *875 0.000485746
*CONN
*P imagem_in[23] I
*I *1840:A I *D BUFx12f_ASAP7_75t_R
*CAP
1 imagem_in[23] 1.12824e-05
2 *1840:A 0
3 *875:29 1.42529e-05
4 *875:21 7.98636e-05
5 *875:11 7.68931e-05
6 *875:11 *884:11 1.33542e-05
7 *875:11 *909:11 1.90937e-05
8 *875:21 *884:21 2.58356e-06
9 *875:21 *965:24 0
10 *875:21 *966:30 0
11 *875:29 *884:29 9.68842e-06
12 *399:36 *875:29 0
13 *755:10 *875:29 1.12894e-06
14 *764:8 *875:29 0
15 *812:28 *875:21 3.08274e-06
16 *874:13 *875:21 0.000254522
*RES
1 imagem_in[23] *875:11 26.9434 
2 *875:11 *875:21 47.929 
3 *875:21 *875:29 36.1203 
4 *875:29 *1840:A 34.4 
*END

*D_NET *876 0.000166508
*CONN
*P imagem_in[24] I
*I *1841:A I *D BUFx2_ASAP7_75t_R
*CAP
1 imagem_in[24] 4.27743e-05
2 *1841:A 0
3 *876:13 3.79628e-05
4 *876:9 8.07371e-05
5 *876:9 *877:11 5.034e-06
6 *868:9 *876:9 0
7 *873:11 *876:9 0
*RES
1 imagem_in[24] *876:9 39.4334 
2 *876:9 *876:13 48.7547 
3 *876:13 *1841:A 17.2 
*END

*D_NET *877 0.000358394
*CONN
*P imagem_in[25] I
*I *1842:A I *D BUFx2_ASAP7_75t_R
*CAP
1 imagem_in[25] 1.45226e-05
2 *1842:A 0
3 *877:27 2.43801e-05
4 *877:19 6.69981e-05
5 *877:11 5.71406e-05
6 *877:11 *878:11 5.8657e-06
7 *877:19 *878:17 9.92364e-05
8 *877:27 *879:27 0
9 *867:13 *877:11 5.31544e-06
10 *867:13 *877:19 7.99013e-05
11 *867:21 *877:27 0
12 *873:13 *877:19 0
13 *876:9 *877:11 5.034e-06
*RES
1 imagem_in[25] *877:11 30.1823 
2 *877:11 *877:19 48.7649 
3 *877:19 *877:27 42.1167 
4 *877:27 *1842:A 17.2 
*END

*D_NET *878 0.000438215
*CONN
*P imagem_in[26] I
*I *1843:A I *D BUFx2_ASAP7_75t_R
*CAP
1 imagem_in[26] 1.25469e-05
2 *1843:A 0
3 *878:27 2.65312e-06
4 *878:17 8.56112e-05
5 *878:11 9.55049e-05
6 *878:11 *879:11 1.60992e-05
7 *878:17 *879:19 9.71284e-05
8 *878:27 *1065:16 4.03399e-07
9 *878:27 *1102:12 1.04612e-06
10 *867:13 *878:11 2.98459e-06
11 *869:17 *878:17 5.31753e-06
12 *870:17 *878:17 1.38172e-05
13 *877:11 *878:11 5.8657e-06
14 *877:19 *878:17 9.92364e-05
*RES
1 imagem_in[26] *878:11 29.8325 
2 *878:11 *878:17 45.2518 
3 *878:17 *878:27 47.5317 
4 *878:27 *1843:A 17.2 
*END

*D_NET *879 0.000490725
*CONN
*P imagem_in[27] I
*I *1844:A I *D BUFx2_ASAP7_75t_R
*CAP
1 imagem_in[27] 1.49434e-05
2 *1844:A 0
3 *879:27 1.51747e-05
4 *879:19 4.89419e-05
5 *879:11 4.87106e-05
6 *714:16 *879:27 0
7 *868:9 *879:11 9.80934e-06
8 *870:11 *879:11 7.42844e-07
9 *870:17 *879:19 0.000239174
10 *877:27 *879:27 0
11 *878:11 *879:11 1.60992e-05
12 *878:17 *879:19 9.71284e-05
*RES
1 imagem_in[27] *879:11 31.306 
2 *879:11 *879:19 49.144 
3 *879:19 *879:27 40.6612 
4 *879:27 *1844:A 17.2 
*END

*D_NET *880 0.00049017
*CONN
*P imagem_in[28] I
*I *1845:A I *D BUFx2_ASAP7_75t_R
*CAP
1 imagem_in[28] 5.36891e-06
2 *1845:A 0
3 *880:25 1.25019e-05
4 *880:13 7.25767e-05
5 *880:11 6.54438e-05
6 *880:11 *881:11 2.64633e-06
7 *880:13 *881:13 0.000164191
8 *873:11 *880:11 9.98595e-07
9 *873:13 *880:13 0.000166443
*RES
1 imagem_in[28] *880:11 25.6698 
2 *880:11 *880:13 40.8655 
3 *880:13 *880:25 45.3032 
4 *880:25 *1845:A 34.4 
*END

*D_NET *881 0.000492058
*CONN
*P imagem_in[29] I
*I *1846:A I *D BUFx2_ASAP7_75t_R
*CAP
1 imagem_in[29] 6.06931e-06
2 *1846:A 0
3 *881:25 2.0194e-05
4 *881:13 0.000149671
5 *881:11 0.000135547
6 *881:13 *1020:20 0
7 *508:9 *881:11 0
8 *845:17 *881:13 0
9 *873:13 *881:13 1.37396e-05
10 *880:11 *881:11 2.64633e-06
11 *880:13 *881:13 0.000164191
*RES
1 imagem_in[29] *881:11 26.0798 
2 *881:11 *881:13 45.9974 
3 *881:13 *881:25 49.6019 
4 *881:25 *1846:A 34.4 
*END

*D_NET *882 0.000623576
*CONN
*P imagem_in[2] I
*I *1847:A I *D BUFx2_ASAP7_75t_R
*CAP
1 imagem_in[2] 5.04426e-05
2 *1847:A 0
3 *882:25 1.31536e-05
4 *882:13 8.51794e-05
5 *882:9 0.000122468
6 *882:9 *904:9 2.26903e-05
7 *882:9 *915:11 2.98459e-06
8 *882:25 *1018:26 0
9 *882:25 *1081:50 0
10 *223:10 *882:25 0
11 *253:8 *882:25 1.41518e-06
12 *728:8 *882:25 7.82377e-07
13 *831:28 *882:13 2.10151e-05
14 *843:13 *882:13 0.000278432
15 *864:11 *882:9 2.32218e-06
16 *871:7 *882:9 2.26903e-05
*RES
1 imagem_in[2] *882:9 40.6515 
2 *882:9 *882:13 39.5505 
3 *882:13 *882:25 46.036 
4 *882:25 *1847:A 34.4 
*END

*D_NET *883 0.000294293
*CONN
*P imagem_in[30] I
*I *1848:A I *D BUFx2_ASAP7_75t_R
*CAP
1 imagem_in[30] 7.15209e-05
2 *1848:A 0
3 *883:31 1.80421e-05
4 *883:25 2.8064e-05
5 *883:13 8.15428e-05
6 *883:13 imagem_out[12] 2.58868e-06
7 *883:13 imagem_out[13] 0
8 *883:13 *884:11 3.23778e-06
9 *883:13 *909:11 5.81119e-06
10 *883:13 *909:21 0
11 *883:13 *963:24 7.59131e-05
12 *883:25 *909:21 0
13 *883:31 *909:29 0
14 *729:8 *883:31 4.93044e-07
15 *763:10 *883:31 0
16 *874:11 *883:13 7.07944e-06
17 *874:13 *883:13 0
*RES
1 imagem_in[30] *883:13 49.179 
2 *883:13 *883:25 34.1963 
3 *883:25 *883:31 49.1362 
4 *883:31 *1848:A 17.2 
*END

*D_NET *884 0.00051649
*CONN
*P imagem_in[31] I
*I *1849:A I *D BUFx2_ASAP7_75t_R
*CAP
1 imagem_in[31] 2.50923e-05
2 *1849:A 5.19455e-06
3 *884:29 2.4307e-05
4 *884:21 5.89509e-05
5 *884:11 6.49308e-05
6 *884:11 *909:11 9.82712e-06
7 *884:11 *918:7 0
8 *884:21 *909:21 6.34024e-05
9 *884:21 *963:24 0
10 *1433:A *1849:A 1.88951e-06
11 *393:14 *884:29 2.98814e-08
12 *399:32 *884:29 1.48544e-06
13 *399:36 *884:29 0
14 *542:12 *884:29 2.29213e-06
15 *721:8 *884:29 0
16 *729:24 *884:21 0
17 *755:10 *884:29 0
18 *764:8 *884:29 0
19 *874:11 *884:11 6.88159e-06
20 *874:13 *884:21 0.000223342
21 *875:11 *884:11 1.33542e-05
22 *875:21 *884:21 2.58356e-06
23 *875:29 *884:29 9.68842e-06
24 *883:13 *884:11 3.23778e-06
*RES
1 imagem_in[31] *884:11 32.1859 
2 *884:11 *884:21 45.5433 
3 *884:21 *884:29 42.569 
4 *884:29 *1849:A 37.0741 
*END

*D_NET *885 0.000284722
*CONN
*P imagem_in[32] I
*I *1850:A I *D BUFx2_ASAP7_75t_R
*CAP
1 imagem_in[32] 7.79755e-06
2 *1850:A 0
3 *885:29 1.04713e-05
4 *885:21 9.91934e-05
5 *885:11 9.65196e-05
6 *885:11 *894:9 6.88159e-06
7 *885:11 *948:11 0
8 *885:21 *919:21 0
9 *885:21 *960:24 6.38583e-05
10 *614:13 *885:21 0
*RES
1 imagem_in[32] *885:11 23.4669 
2 *885:11 *885:21 49.7203 
3 *885:21 *885:29 34.974 
4 *885:29 *1850:A 34.4 
*END

*D_NET *886 0.000305466
*CONN
*P imagem_in[33] I
*I *1851:A I *D BUFx2_ASAP7_75t_R
*CAP
1 imagem_in[33] 5.70251e-05
2 *1851:A 0
3 *886:31 1.81216e-05
4 *886:25 5.41331e-05
5 *886:13 9.30366e-05
6 *886:13 *895:11 7.07944e-06
7 *886:13 *895:21 7.60703e-05
8 *886:13 *960:24 0
9 *886:31 *887:13 0
10 *886:31 *1063:8 0
*RES
1 imagem_in[33] *886:13 43.8824 
2 *886:13 *886:25 40.59 
3 *886:25 *886:31 49.1362 
4 *886:31 *1851:A 17.2 
*END

*D_NET *887 0.000178751
*CONN
*P imagem_in[34] I
*I *1852:A I *D BUFx2_ASAP7_75t_R
*CAP
1 imagem_in[34] 4.71967e-05
2 *1852:A 0
3 *887:13 3.86389e-05
4 *887:11 3.86389e-05
5 *887:9 4.71967e-05
6 *887:9 *888:9 0
7 *887:9 *896:11 7.07944e-06
8 *887:13 *888:13 0
9 *886:31 *887:13 0
*RES
1 imagem_in[34] *887:9 37.4577 
2 *887:9 *887:11 17.2 
3 *887:11 *887:13 34.2593 
4 *887:13 *1852:A 34.4 
*END

*D_NET *888 0.000168115
*CONN
*P imagem_in[35] I
*I *1853:A I *D BUFx2_ASAP7_75t_R
*CAP
1 imagem_in[35] 4.24125e-05
2 *1853:A 0
3 *888:13 3.82041e-05
4 *888:11 3.82041e-05
5 *888:9 4.24125e-05
6 *888:9 *897:13 6.88159e-06
7 *888:13 *897:31 0
8 *887:9 *888:9 0
9 *887:13 *888:13 0
*RES
1 imagem_in[35] *888:9 35.0769 
2 *888:9 *888:11 17.2 
3 *888:11 *888:13 34.2593 
4 *888:13 *1853:A 34.4 
*END

*D_NET *889 0.000434515
*CONN
*P imagem_in[36] I
*I *1854:A I *D BUFx2_ASAP7_75t_R
*CAP
1 imagem_in[36] 1.30126e-05
2 *1854:A 0
3 *889:27 6.23797e-06
4 *889:17 0.000124721
5 *889:11 0.000131496
6 *889:11 *890:11 2.13423e-05
7 *889:11 *892:11 2.32218e-06
8 *889:17 *890:19 0.000102896
9 *889:17 *892:15 0
10 *889:17 *901:17 1.62815e-06
11 *744:12 *889:27 4.61681e-07
12 *744:18 *889:27 3.84734e-08
13 *744:31 *889:17 6.26359e-06
14 *745:43 *889:17 2.40941e-05
*RES
1 imagem_in[36] *889:11 29.9244 
2 *889:11 *889:17 46.3923 
3 *889:17 *889:27 48.3688 
4 *889:27 *1854:A 17.2 
*END

*D_NET *890 0.000429906
*CONN
*P imagem_in[37] I
*I *1855:A I *D BUFx2_ASAP7_75t_R
*CAP
1 imagem_in[37] 1.42758e-05
2 *1855:A 0
3 *890:27 2.5322e-05
4 *890:19 6.03937e-05
5 *890:11 4.93476e-05
6 *890:11 *901:11 2.64679e-05
7 *890:19 *901:17 0.000101609
8 *735:12 *890:27 4.22483e-06
9 *737:18 *890:19 2.66911e-06
10 *745:12 *890:27 1.03275e-05
11 *745:18 *890:27 1.0445e-05
12 *745:43 *890:19 5.84462e-07
13 *889:11 *890:11 2.13423e-05
14 *889:17 *890:19 0.000102896
*RES
1 imagem_in[37] *890:11 31.3979 
2 *890:11 *890:19 49.0312 
3 *890:19 *890:27 43.8702 
4 *890:27 *1855:A 17.2 
*END

*D_NET *891 0.000243842
*CONN
*P imagem_in[38] I
*I *1856:A I *D BUFx2_ASAP7_75t_R
*CAP
1 imagem_in[38] 3.75331e-05
2 *1856:A 0
3 *891:13 3.94489e-05
4 *891:7 7.69819e-05
5 *891:7 *892:11 4.70985e-06
6 *891:7 *899:9 0
7 *891:7 *900:9 7.53309e-05
8 *891:13 *899:13 0
9 *891:13 *900:13 0
10 *746:12 *891:13 9.83747e-06
*RES
1 imagem_in[38] *891:7 45.1746 
2 *891:7 *891:13 48.8699 
3 *891:13 *1856:A 17.2 
*END

*D_NET *892 0.000464501
*CONN
*P imagem_in[39] I
*I *1857:A I *D BUFx12f_ASAP7_75t_R
*CAP
1 imagem_in[39] 7.33433e-06
2 *1857:A 0
3 *892:37 3.32151e-06
4 *892:29 6.58462e-05
5 *892:15 0.000178385
6 *892:11 0.000123194
7 *892:15 *898:19 7.44391e-05
8 *735:26 *892:37 0
9 *736:26 *892:29 3.74016e-08
10 *737:24 *892:29 1.77734e-06
11 *737:34 *892:29 0
12 *738:6 *892:37 1.04475e-06
13 *744:31 *892:29 2.08928e-06
14 *745:43 *892:15 0
15 *747:10 *892:37 0
16 *889:11 *892:11 2.32218e-06
17 *889:17 *892:15 0
18 *891:7 *892:11 4.70985e-06
*RES
1 imagem_in[39] *892:11 26.5356 
2 *892:11 *892:15 42.1754 
3 *892:15 *892:29 46.6826 
4 *892:29 *892:37 36.5021 
5 *892:37 *1857:A 17.2 
*END

*D_NET *893 0.000573355
*CONN
*P imagem_in[3] I
*I *1858:A I *D BUFx2_ASAP7_75t_R
*CAP
1 imagem_in[3] 1.01277e-05
2 *1858:A 0
3 *893:25 9.92157e-06
4 *893:13 0.000206947
5 *893:11 0.000207153
6 *893:11 *904:9 4.70985e-06
7 *1580:A1 *893:25 0
8 *805:20 *893:13 0
9 *843:11 *893:11 2.32218e-06
10 *843:13 *893:13 0
11 *843:25 *893:25 0
12 *864:17 *893:13 0.000132174
*RES
1 imagem_in[3] *893:11 27.9031 
2 *893:11 *893:13 51.6996 
3 *893:13 *893:25 44.1499 
4 *893:25 *1858:A 34.4 
*END

*D_NET *894 0.000179415
*CONN
*P imagem_in[40] I
*I *1859:A I *D BUFx2_ASAP7_75t_R
*CAP
1 imagem_in[40] 4.61326e-05
2 *1859:A 0
3 *894:13 3.80997e-05
4 *894:11 3.80997e-05
5 *894:9 4.61326e-05
6 *894:9 imagem_out[0] 4.06923e-06
7 *894:9 imagem_out[1] 0
8 *894:9 *948:11 0
9 *885:11 *894:9 6.88159e-06
*RES
1 imagem_in[40] *894:9 37.4577 
2 *894:9 *894:11 17.2 
3 *894:11 *894:13 34.2593 
4 *894:13 *1859:A 34.4 
*END

*D_NET *895 0.000522534
*CONN
*P imagem_in[41] I
*I *1860:A I *D BUFx2_ASAP7_75t_R
*CAP
1 imagem_in[41] 7.83507e-06
2 *1860:A 0
3 *895:29 2.53286e-05
4 *895:21 7.08378e-05
5 *895:11 5.33443e-05
6 *895:11 imagem_out[1] 1.35521e-05
7 *895:21 *960:24 4.74143e-06
8 *895:21 *971:24 0.000239448
9 *895:29 *1063:8 1.20332e-05
10 *1639:B *895:29 1.2264e-05
11 *886:13 *895:11 7.07944e-06
12 *886:13 *895:21 7.60703e-05
*RES
1 imagem_in[41] *895:11 25.5179 
2 *895:11 *895:21 48.7844 
3 *895:21 *895:29 47.3174 
4 *895:29 *1860:A 34.4 
*END

*D_NET *896 0.000331181
*CONN
*P imagem_in[42] I
*I *1861:A I *D BUFx2_ASAP7_75t_R
*CAP
1 imagem_in[42] 6.95922e-06
2 *1861:A 0
3 *896:29 1.76663e-05
4 *896:17 0.000123637
5 *896:11 0.00011293
6 *896:11 *897:13 3.58657e-06
7 *896:17 *897:13 5.93232e-05
8 *896:17 *897:25 0
9 *733:10 *896:29 0
10 *733:21 *896:29 0
11 *887:9 *896:11 7.07944e-06
*RES
1 imagem_in[42] *896:11 23.4669 
2 *896:11 *896:17 40.3352 
3 *896:17 *896:29 48.7149 
4 *896:29 *1861:A 34.4 
*END

*D_NET *897 0.000281121
*CONN
*P imagem_in[43] I
*I *1862:A I *D BUFx2_ASAP7_75t_R
*CAP
1 imagem_in[43] 6.24708e-05
2 *1862:A 0
3 *897:31 1.76023e-05
4 *897:25 4.31941e-05
5 *897:13 8.80626e-05
6 *888:9 *897:13 6.88159e-06
7 *888:13 *897:31 0
8 *896:11 *897:13 3.58657e-06
9 *896:17 *897:13 5.93232e-05
10 *896:17 *897:25 0
*RES
1 imagem_in[43] *897:13 43.8824 
2 *897:13 *897:25 40.0324 
3 *897:25 *897:31 49.1362 
4 *897:31 *1862:A 17.2 
*END

*D_NET *898 0.000321598
*CONN
*P imagem_in[44] I
*I *1863:A I *D BUFx2_ASAP7_75t_R
*CAP
1 imagem_in[44] 1.07073e-05
2 *1863:A 0
3 *898:27 2.50679e-05
4 *898:19 0.000111711
5 *898:11 9.73507e-05
6 *898:11 *900:9 2.32218e-06
7 *892:15 *898:19 7.44391e-05
*RES
1 imagem_in[44] *898:11 27.4932 
2 *898:11 *898:19 49.9054 
3 *898:19 *898:27 43.1193 
4 *898:27 *1863:A 17.2 
*END

*D_NET *899 0.000187276
*CONN
*P imagem_in[45] I
*I *1864:A I *D BUFx2_ASAP7_75t_R
*CAP
1 imagem_in[45] 5.60285e-05
2 *1864:A 0
3 *899:13 3.43989e-05
4 *899:9 9.04274e-05
5 *899:9 *901:11 6.42101e-06
6 *891:7 *899:9 0
7 *891:13 *899:13 0
*RES
1 imagem_in[45] *899:9 46.2071 
2 *899:9 *899:13 41.2671 
3 *899:13 *1864:A 17.2 
*END

*D_NET *900 0.000225597
*CONN
*P imagem_in[46] I
*I *1865:A I *D BUFx2_ASAP7_75t_R
*CAP
1 imagem_in[46] 3.89076e-05
2 *1865:A 0
3 *900:13 3.50645e-05
4 *900:9 7.39722e-05
5 *891:7 *900:9 7.53309e-05
6 *891:13 *900:13 0
7 *898:11 *900:9 2.32218e-06
*RES
1 imagem_in[46] *900:9 46.6841 
2 *900:9 *900:13 42.3368 
3 *900:13 *1865:A 17.2 
*END

*D_NET *901 0.000439891
*CONN
*P imagem_in[47] I
*I *1866:A I *D BUFx2_ASAP7_75t_R
*CAP
1 imagem_in[47] 2.05196e-05
2 *1866:A 0
3 *901:27 7.52304e-06
4 *901:17 0.0001017
5 *901:11 0.000114696
6 *735:12 *901:27 0
7 *737:24 *901:17 3.13448e-05
8 *744:31 *901:17 4.48483e-06
9 *745:43 *901:17 2.34967e-05
10 *889:17 *901:17 1.62815e-06
11 *890:11 *901:11 2.64679e-05
12 *890:19 *901:17 0.000101609
13 *899:9 *901:11 6.42101e-06
*RES
1 imagem_in[47] *901:11 32.8714 
2 *901:11 *901:17 44.9479 
3 *901:17 *901:27 49.3074 
4 *901:27 *1866:A 17.2 
*END

*D_NET *902 0.000293134
*CONN
*P imagem_in[48] I
*I *1867:A I *D BUFx2_ASAP7_75t_R
*CAP
1 imagem_in[48] 6.47295e-05
2 *1867:A 0
3 *902:31 1.91932e-05
4 *902:25 3.36632e-05
5 *902:13 7.91995e-05
6 *902:13 *911:11 1.98485e-05
7 *902:13 *911:21 7.51997e-05
8 *902:25 *911:29 4.93589e-07
9 *902:31 *903:13 0
10 *902:31 *911:29 0
11 *757:8 *902:31 8.06799e-07
*RES
1 imagem_in[48] *902:13 46.4484 
2 *902:13 *902:25 35.9014 
3 *902:25 *902:31 49.1362 
4 *902:31 *1867:A 17.2 
*END

*D_NET *903 0.00021561
*CONN
*P imagem_in[49] I
*I *1868:A I *D BUFx2_ASAP7_75t_R
*CAP
1 imagem_in[49] 4.42162e-05
2 *1868:A 0
3 *903:13 3.70453e-05
4 *903:11 3.70453e-05
5 *903:9 4.42162e-05
6 *903:9 *911:11 1.33542e-05
7 *903:9 *912:11 2.62995e-05
8 *759:16 *903:13 1.34329e-05
9 *902:31 *903:13 0
*RES
1 imagem_in[49] *903:9 38.6481 
2 *903:9 *903:11 17.2 
3 *903:11 *903:13 34.2593 
4 *903:13 *1868:A 34.4 
*END

*D_NET *904 0.000189682
*CONN
*P imagem_in[4] I
*I *1869:A I *D BUFx2_ASAP7_75t_R
*CAP
1 imagem_in[4] 3.14788e-05
2 *1869:A 0
3 *904:13 4.47353e-05
4 *904:11 4.47353e-05
5 *904:9 3.14788e-05
6 *904:13 *987:6 0
7 *1217:A *904:13 6.86929e-06
8 *864:11 *904:9 2.98459e-06
9 *871:7 *904:9 0
10 *882:9 *904:9 2.26903e-05
11 *893:11 *904:9 4.70985e-06
*RES
1 imagem_in[4] *904:9 36.6551 
2 *904:9 *904:11 17.2 
3 *904:11 *904:13 40.1119 
4 *904:13 *1869:A 17.2 
*END

*D_NET *905 0.000305542
*CONN
*P imagem_in[50] I
*I *1870:A I *D BUFx2_ASAP7_75t_R
*CAP
1 imagem_in[50] 6.52691e-05
2 *1870:A 0
3 *905:31 1.91172e-05
4 *905:25 4.06044e-05
5 *905:13 8.67563e-05
6 *905:13 imagem_out[10] 6.52189e-06
7 *905:13 *906:19 0
8 *905:13 *913:11 6.88159e-06
9 *905:13 *913:21 6.25318e-05
10 *905:13 *961:24 6.64162e-06
11 *905:25 *913:21 2.58356e-06
12 *905:25 *913:29 8.63472e-06
13 *905:31 *913:29 0
*RES
1 imagem_in[50] *905:13 44.9278 
2 *905:13 *905:25 40.0401 
3 *905:25 *905:31 49.1362 
4 *905:31 *1870:A 17.2 
*END

*D_NET *906 0.000295161
*CONN
*P imagem_in[51] I
*I *1871:A I *D BUFx12f_ASAP7_75t_R
*CAP
1 imagem_in[51] 7.60936e-06
2 *1871:A 2.6766e-06
3 *906:29 1.74407e-05
4 *906:19 0.000101826
5 *906:11 9.46709e-05
6 *906:11 imagem_out[11] 0
7 *906:11 *914:9 7.07944e-06
8 *906:19 *962:24 6.38583e-05
9 *399:44 *906:29 0
10 *752:6 *1871:A 0
11 *760:27 *906:29 0
12 *905:13 *906:19 0
*RES
1 imagem_in[51] *906:11 23.3718 
2 *906:11 *906:19 48.8089 
3 *906:19 *906:29 35.2474 
4 *906:29 *1871:A 35.4697 
*END

*D_NET *907 0.000455142
*CONN
*P imagem_in[52] I
*I *1872:A I *D BUFx2_ASAP7_75t_R
*CAP
1 imagem_in[52] 3.76296e-05
2 *1872:A 0
3 *907:31 1.81216e-05
4 *907:25 4.1781e-05
5 *907:13 6.1289e-05
6 *907:13 imagem_out[13] 1.06353e-06
7 *907:13 *908:13 9.12637e-05
8 *907:13 *916:11 7.07944e-06
9 *907:13 *917:9 3.23778e-06
10 *907:13 *962:24 3.79258e-06
11 *907:25 *908:25 4.77719e-06
12 *907:31 *908:31 0
13 *872:11 *907:13 1.66249e-06
14 *872:13 *907:13 0.000183444
*RES
1 imagem_in[52] *907:13 47.6584 
2 *907:13 *907:25 40.9322 
3 *907:25 *907:31 49.1362 
4 *907:31 *1872:A 17.2 
*END

*D_NET *908 0.000320626
*CONN
*P imagem_in[53] I
*I *1873:A I *D BUFx2_ASAP7_75t_R
*CAP
1 imagem_in[53] 4.60722e-05
2 *1873:A 0
3 *908:31 1.60456e-05
4 *908:25 2.75834e-05
5 *908:13 5.76099e-05
6 *908:13 *917:9 0
7 *908:13 *962:24 7.03927e-05
8 *908:31 *917:13 0
9 *872:11 *908:13 6.88159e-06
10 *907:13 *908:13 9.12637e-05
11 *907:25 *908:25 4.77719e-06
12 *907:31 *908:31 0
*RES
1 imagem_in[53] *908:13 48.8685 
2 *908:13 *908:25 35.2162 
3 *908:25 *908:31 47.6344 
4 *908:31 *1873:A 17.2 
*END

*D_NET *909 0.000312542
*CONN
*P imagem_in[54] I
*I *1874:A I *D BUFx2_ASAP7_75t_R
*CAP
1 imagem_in[54] 2.84856e-05
2 *1874:A 0
3 *909:29 2.1101e-05
4 *909:21 6.68429e-05
5 *909:11 7.42274e-05
6 *909:11 *918:7 1.98268e-05
7 *909:29 *918:13 0
8 *729:8 *909:29 0
9 *874:11 *909:11 1.14496e-07
10 *874:13 *909:21 3.80955e-06
11 *875:11 *909:11 1.90937e-05
12 *883:13 *909:11 5.81119e-06
13 *883:13 *909:21 0
14 *883:25 *909:21 0
15 *883:31 *909:29 0
16 *884:11 *909:11 9.82712e-06
17 *884:21 *909:21 6.34024e-05
*RES
1 imagem_in[54] *909:11 33.5562 
2 *909:11 *909:21 38.9323 
3 *909:21 *909:29 44.4396 
4 *909:29 *1874:A 34.4 
*END

*D_NET *910 0.000223764
*CONN
*P imagem_in[55] I
*I *1875:A I *D BUFx3_ASAP7_75t_R
*CAP
1 imagem_in[55] 3.4544e-05
2 *1875:A 0
3 *910:13 3.55864e-05
4 *910:11 3.55864e-05
5 *910:9 3.4544e-05
6 *910:9 imagem_out[14] 7.07944e-06
7 *910:9 imagem_out[15] 6.95822e-06
8 *910:9 *918:7 5.86582e-05
9 *910:13 *966:8 1.08069e-05
*RES
1 imagem_in[55] *910:9 37.4577 
2 *910:9 *910:11 17.2 
3 *910:11 *910:13 34.2593 
4 *910:13 *1875:A 34.4 
*END

*D_NET *911 0.000356174
*CONN
*P imagem_in[56] I
*I *1876:A I *D BUFx2_ASAP7_75t_R
*CAP
1 imagem_in[56] 2.24393e-05
2 *1876:A 0
3 *911:29 2.60647e-05
4 *911:21 6.01814e-05
5 *911:11 5.6556e-05
6 *911:11 *912:11 1.09201e-05
7 *911:21 *912:21 6.94686e-05
8 *911:29 *912:29 0
9 *757:8 *911:29 1.64764e-06
10 *902:13 *911:11 1.98485e-05
11 *902:13 *911:21 7.51997e-05
12 *902:25 *911:29 4.93589e-07
13 *902:31 *911:29 0
14 *903:9 *911:11 1.33542e-05
*RES
1 imagem_in[56] *911:11 31.125 
2 *911:11 *911:21 41.5269 
3 *911:21 *911:29 45.5484 
4 *911:29 *1876:A 34.4 
*END

*D_NET *912 0.000385134
*CONN
*P imagem_in[57] I
*I *1877:A I *D BUFx2_ASAP7_75t_R
*CAP
1 imagem_in[57] 5.10346e-05
2 *1877:A 0
3 *912:29 2.05779e-05
4 *912:21 8.76516e-05
5 *912:11 0.000118108
6 *749:10 *912:29 1.07373e-06
7 *759:16 *912:29 0
8 *903:9 *912:11 2.62995e-05
9 *911:11 *912:11 1.09201e-05
10 *911:21 *912:21 6.94686e-05
11 *911:29 *912:29 0
*RES
1 imagem_in[57] *912:11 39.7888 
2 *912:11 *912:21 44.8216 
3 *912:21 *912:29 38.437 
4 *912:29 *1877:A 34.4 
*END

*D_NET *913 0.000316463
*CONN
*P imagem_in[58] I
*I *1878:A I *D BUFx2_ASAP7_75t_R
*CAP
1 imagem_in[58] 3.25712e-05
2 *1878:A 0
3 *913:29 1.98983e-05
4 *913:21 4.51091e-05
5 *913:11 5.77821e-05
6 *913:11 imagem_out[10] 1.60468e-05
7 *913:11 *914:9 0
8 *913:21 *961:24 6.38446e-05
9 *913:29 *914:13 0
10 *759:8 *913:29 5.79724e-07
11 *905:13 *913:11 6.88159e-06
12 *905:13 *913:21 6.25318e-05
13 *905:25 *913:21 2.58356e-06
14 *905:25 *913:29 8.63472e-06
15 *905:31 *913:29 0
*RES
1 imagem_in[58] *913:11 34.4668 
2 *913:11 *913:21 38.3378 
3 *913:21 *913:29 43.6954 
4 *913:29 *1878:A 34.4 
*END

*D_NET *914 0.000190726
*CONN
*P imagem_in[59] I
*I *1879:A I *D BUFx2_ASAP7_75t_R
*CAP
1 imagem_in[59] 4.60092e-05
2 *1879:A 0
3 *914:13 3.91367e-05
4 *914:11 3.91367e-05
5 *914:9 4.60092e-05
6 *914:9 imagem_out[10] 1.33542e-05
7 *759:8 *914:13 0
8 *906:11 *914:9 7.07944e-06
9 *913:11 *914:9 0
10 *913:29 *914:13 0
*RES
1 imagem_in[59] *914:9 37.9988 
2 *914:9 *914:11 17.2 
3 *914:11 *914:13 34.2593 
4 *914:13 *1879:A 34.4 
*END

*D_NET *915 0.000604229
*CONN
*P imagem_in[5] I
*I *1880:A I *D BUFx2_ASAP7_75t_R
*CAP
1 imagem_in[5] 3.80808e-06
2 *1880:A 0
3 *915:27 3.68233e-06
4 *915:17 7.20274e-05
5 *915:11 7.21531e-05
6 *915:11 *937:11 2.26208e-06
7 *915:17 *937:19 0.000249246
8 *700:16 *915:27 0
9 *761:18 *915:27 6.10208e-06
10 *805:20 *915:17 8.59879e-05
11 *863:17 *915:17 0
12 *864:17 *915:17 3.15969e-05
13 *864:25 *915:27 0
14 *866:17 *915:17 7.20566e-05
15 *871:7 *915:11 2.32218e-06
16 *882:9 *915:11 2.98459e-06
*RES
1 imagem_in[5] *915:11 25.6698 
2 *915:11 *915:17 46.0884 
3 *915:17 *915:27 48.2606 
4 *915:27 *1880:A 17.2 
*END

*D_NET *916 0.000348128
*CONN
*P imagem_in[60] I
*I *1881:A I *D BUFx2_ASAP7_75t_R
*CAP
1 imagem_in[60] 4.53141e-06
2 *1881:A 0
3 *916:29 7.57552e-06
4 *916:21 5.3351e-05
5 *916:11 5.03069e-05
6 *916:11 imagem_out[13] 0
7 *916:11 *917:9 6.88159e-06
8 *916:21 *963:24 0.000110519
9 *916:21 *964:24 9.21874e-05
10 *399:38 *916:29 0
11 *763:10 *916:29 1.56957e-05
12 *872:13 *916:21 0
13 *907:13 *916:11 7.07944e-06
*RES
1 imagem_in[60] *916:11 23.0867 
2 *916:11 *916:21 49.3402 
3 *916:21 *916:29 34.8658 
4 *916:29 *1881:A 34.4 
*END

*D_NET *917 0.000212361
*CONN
*P imagem_in[61] I
*I *1882:A I *D BUFx2_ASAP7_75t_R
*CAP
1 imagem_in[61] 4.90589e-05
2 *1882:A 0
3 *917:13 3.85088e-05
4 *917:11 3.85088e-05
5 *917:9 4.90589e-05
6 *917:9 imagem_out[13] 2.62995e-05
7 *763:10 *917:13 8.06799e-07
8 *907:13 *917:9 3.23778e-06
9 *908:13 *917:9 0
10 *908:31 *917:13 0
11 *916:11 *917:9 6.88159e-06
*RES
1 imagem_in[61] *917:9 39.5138 
2 *917:9 *917:11 17.2 
3 *917:11 *917:13 34.2593 
4 *917:13 *1882:A 34.4 
*END

*D_NET *918 0.000233211
*CONN
*P imagem_in[62] I
*I *1883:A I *D BUFx2_ASAP7_75t_R
*CAP
1 imagem_in[62] 4.39741e-05
2 *1883:A 0
3 *918:13 3.30177e-05
4 *918:7 7.69918e-05
5 *918:7 *966:20 7.42844e-07
6 *884:11 *918:7 0
7 *909:11 *918:7 1.98268e-05
8 *909:29 *918:13 0
9 *910:9 *918:7 5.86582e-05
*RES
1 imagem_in[62] *918:7 44.7725 
2 *918:7 *918:13 39.3359 
3 *918:13 *1883:A 34.4 
*END

*D_NET *919 0.000456675
*CONN
*P imagem_in[63] I
*I *1884:A I *D BUFx2_ASAP7_75t_R
*CAP
1 imagem_in[63] 6.78578e-06
2 *1884:A 0
3 *919:29 8.83422e-06
4 *919:21 5.86875e-05
5 *919:11 5.66391e-05
6 *919:11 imagem_out[15] 1.35521e-05
7 *919:11 *948:11 3.23778e-06
8 *919:21 *948:13 0.000239443
9 *919:21 *965:24 5.41085e-05
10 *614:11 *919:11 7.07944e-06
11 *614:13 *919:21 5.67756e-06
12 *756:10 *919:29 1.05879e-06
13 *811:32 *919:21 0
14 *811:40 *919:29 1.5707e-06
15 *885:21 *919:21 0
*RES
1 imagem_in[63] *919:11 25.5179 
2 *919:11 *919:21 48.7844 
3 *919:21 *919:29 34.7576 
4 *919:29 *1884:A 34.4 
*END

*D_NET *920 0.000223373
*CONN
*P imagem_in[64] I
*I *1885:A I *D BUFx2_ASAP7_75t_R
*CAP
1 imagem_in[64] 3.22222e-05
2 *1885:A 0
3 *920:13 2.29702e-05
4 *920:9 5.51924e-05
5 *920:9 *921:11 4.87346e-05
6 *920:9 *929:5 1.86495e-05
7 *920:9 *942:5 4.56045e-05
8 *920:13 *929:13 0
9 *920:13 *942:13 0
*RES
1 imagem_in[64] *920:9 44.0625 
2 *920:9 *920:13 37.7556 
3 *920:13 *1885:A 34.4 
*END

*D_NET *921 0.000353407
*CONN
*P imagem_in[65] I
*I *1886:A I *D BUFx2_ASAP7_75t_R
*CAP
1 imagem_in[65] 5.08439e-05
2 *1886:A 0
3 *921:31 1.52622e-06
4 *921:25 4.68637e-05
5 *921:11 9.61813e-05
6 *921:11 *929:5 4.87346e-05
7 *921:25 *930:21 0
8 *921:25 *969:24 6.05231e-05
9 *920:9 *921:11 4.87346e-05
*RES
1 imagem_in[65] *921:11 47.1574 
2 *921:11 *921:25 49.7748 
3 *921:25 *921:31 35.2447 
4 *921:31 *1886:A 17.2 
*END

*D_NET *922 0.00019491
*CONN
*P imagem_in[66] I
*I *1887:A I *D BUFx2_ASAP7_75t_R
*CAP
1 imagem_in[66] 6.86247e-05
2 *1887:A 0
3 *922:13 1.59174e-05
4 *922:5 8.45422e-05
5 *922:5 *931:11 9.89886e-06
6 *922:5 *931:21 0
7 *922:5 *932:11 1.59263e-05
8 *777:10 *922:13 0
*RES
1 imagem_in[66] *922:5 40.7219 
2 *922:5 *922:13 36.0761 
3 *922:13 *1887:A 34.4 
*END

*D_NET *923 0.000307494
*CONN
*P imagem_in[67] I
*I *1888:A I *D BUFx2_ASAP7_75t_R
*CAP
1 imagem_in[67] 3.83027e-05
2 *1888:A 0
3 *923:31 4.50726e-06
4 *923:21 0.00010316
5 *923:11 0.000136956
6 *923:11 *931:11 1.66219e-05
7 *923:11 *932:11 7.43856e-06
8 *923:21 *931:21 0
9 *923:21 *932:21 0
10 *923:31 *932:31 0
11 *403:18 *923:31 5.07312e-07
*RES
1 imagem_in[67] *923:11 31.6599 
2 *923:11 *923:21 48.575 
3 *923:21 *923:31 48.3113 
4 *923:31 *1888:A 17.2 
*END

*D_NET *924 0.00050892
*CONN
*P imagem_in[68] I
*I *1889:A I *D BUFx2_ASAP7_75t_R
*CAP
1 imagem_in[68] 4.31262e-05
2 *1889:A 0
3 *924:33 1.8461e-05
4 *924:25 4.58822e-05
5 *924:17 7.05475e-05
6 *924:17 *925:11 2.64633e-06
7 *924:17 *927:17 3.5131e-05
8 *924:17 *928:15 3.06489e-07
9 *924:17 *934:15 3.23125e-07
10 *924:25 *927:25 7.41947e-05
11 *924:25 *933:21 5.19997e-06
12 *924:25 *936:15 0.000195995
13 *924:33 *927:33 2.52144e-06
14 *924:33 *933:21 1.12157e-05
15 *924:33 *935:23 3.36871e-06
*RES
1 imagem_in[68] *924:17 44.0366 
2 *924:17 *924:25 40.3275 
3 *924:25 *924:33 38.8523 
4 *924:33 *1889:A 34.4 
*END

*D_NET *925 0.000326443
*CONN
*P imagem_in[69] I
*I *1890:A I *D BUFx2_ASAP7_75t_R
*CAP
1 imagem_in[69] 8.62831e-06
2 *1890:A 0
3 *925:27 3.0474e-05
4 *925:19 0.000101524
5 *925:11 7.96783e-05
6 *925:11 *927:17 6.6573e-07
7 *925:11 *934:11 5.28641e-06
8 *925:19 *927:17 1.36851e-06
9 *925:19 *934:15 9.61713e-05
10 *1495:A *925:27 0
11 *924:17 *925:11 2.64633e-06
*RES
1 imagem_in[69] *925:11 27.8113 
2 *925:11 *925:19 49.9037 
3 *925:19 *925:27 48.1392 
4 *925:27 *1890:A 17.2 
*END

*D_NET *926 0.000211878
*CONN
*P imagem_in[6] I
*I *1891:A I *D BUFx2_ASAP7_75t_R
*CAP
1 imagem_in[6] 4.45373e-05
2 *1891:A 0
3 *926:13 3.54669e-05
4 *926:9 8.00041e-05
5 *926:9 *959:7 3.70312e-05
6 *1218:A *926:13 8.4825e-06
7 *854:11 *926:9 2.32218e-06
8 *865:13 *926:9 4.03334e-06
*RES
1 imagem_in[6] *926:9 48.2013 
2 *926:9 *926:13 44.4761 
3 *926:13 *1891:A 17.2 
*END

*D_NET *927 0.000419663
*CONN
*P imagem_in[70] I
*I *1892:A I *D BUFx2_ASAP7_75t_R
*CAP
1 imagem_in[70] 5.72757e-05
2 *1892:A 0
3 *927:33 1.72191e-05
4 *927:25 8.5777e-05
5 *927:17 0.000125834
6 *927:17 *934:15 0
7 *927:17 *975:26 0
8 *927:25 *936:15 1.3711e-05
9 *927:33 *933:21 5.92634e-06
10 *927:33 *934:23 3.84734e-08
11 *924:17 *927:17 3.5131e-05
12 *924:25 *927:25 7.41947e-05
13 *924:33 *927:33 2.52144e-06
14 *925:11 *927:17 6.6573e-07
15 *925:19 *927:17 1.36851e-06
*RES
1 imagem_in[70] *927:17 48.4473 
2 *927:17 *927:25 43.483 
3 *927:25 *927:33 35.2303 
4 *927:33 *1892:A 34.4 
*END

*D_NET *928 0.000682382
*CONN
*P imagem_in[71] I
*I *1893:A I *D BUFx2_ASAP7_75t_R
*CAP
1 imagem_in[71] 3.16731e-06
2 *1893:A 0
3 *928:25 3.68966e-05
4 *928:15 0.000107968
5 *928:11 7.42386e-05
6 *928:11 *933:13 2.64633e-06
7 *928:11 *934:11 2.98459e-06
8 *928:15 *933:13 8.20699e-05
9 *928:15 *934:15 0.000307842
10 *928:15 *935:13 1.68044e-06
11 *928:15 *936:15 0
12 *928:25 *934:23 1.65967e-05
13 *928:25 *936:25 3.60765e-05
14 *473:8 *928:25 1.35151e-06
15 *479:8 *928:25 1.09842e-06
16 *773:10 *928:25 7.45896e-06
17 *924:17 *928:15 3.06489e-07
*RES
1 imagem_in[71] *928:11 25.214 
2 *928:11 *928:15 45.2527 
3 *928:15 *928:25 48.303 
4 *928:25 *1893:A 34.4 
*END

*D_NET *929 0.000209676
*CONN
*P imagem_in[72] I
*I *1894:A I *D BUFx2_ASAP7_75t_R
*CAP
1 imagem_in[72] 5.91076e-05
2 *1894:A 0
3 *929:13 1.03254e-05
4 *929:5 6.9433e-05
5 *929:5 *930:11 3.42623e-06
6 *929:5 *942:5 0
7 *920:9 *929:5 1.86495e-05
8 *920:13 *929:13 0
9 *921:11 *929:5 4.87346e-05
*RES
1 imagem_in[72] *929:5 40.7219 
2 *929:5 *929:13 34.084 
3 *929:13 *1894:A 34.4 
*END

*D_NET *930 0.000344228
*CONN
*P imagem_in[73] I
*I *1895:A I *D BUFx2_ASAP7_75t_R
*CAP
1 imagem_in[73] 4.21833e-05
2 *1895:A 0
3 *930:31 6.32756e-06
4 *930:21 7.30059e-05
5 *930:11 0.000108862
6 *930:11 imagem_out[18] 7.17187e-06
7 *930:21 *969:24 0.000102226
8 *403:12 *930:31 1.02522e-06
9 *921:25 *930:21 0
10 *929:5 *930:11 3.42623e-06
*RES
1 imagem_in[73] *930:11 30.8996 
2 *930:11 *930:21 48.1948 
3 *930:21 *930:31 48.3975 
4 *930:31 *1895:A 17.2 
*END

*D_NET *931 0.000324887
*CONN
*P imagem_in[74] I
*I *1896:A I *D BUFx2_ASAP7_75t_R
*CAP
1 imagem_in[74] 2.67183e-05
2 *1896:A 0
3 *931:31 4.9215e-06
4 *931:21 7.72088e-05
5 *931:11 9.90056e-05
6 *931:11 imagem_out[18] 0
7 *931:11 *932:11 2.10232e-05
8 *931:21 *932:21 6.6337e-05
9 *777:10 *931:31 3.15149e-06
10 *922:5 *931:11 9.89886e-06
11 *922:5 *931:21 0
12 *923:11 *931:11 1.66219e-05
13 *923:21 *931:21 0
*RES
1 imagem_in[74] *931:11 31.43 
2 *931:11 *931:21 47.7904 
3 *931:21 *931:31 48.0441 
4 *931:31 *1896:A 17.2 
*END

*D_NET *932 0.000314146
*CONN
*P imagem_in[75] I
*I *1897:A I *D BUFx2_ASAP7_75t_R
*CAP
1 imagem_in[75] 3.34641e-05
2 *1897:A 0
3 *932:31 5.88401e-06
4 *932:21 6.82465e-05
5 *932:11 9.58266e-05
6 *777:10 *932:31 0
7 *922:5 *932:11 1.59263e-05
8 *923:11 *932:11 7.43856e-06
9 *923:21 *932:21 0
10 *923:31 *932:31 0
11 *931:11 *932:11 2.10232e-05
12 *931:21 *932:21 6.6337e-05
*RES
1 imagem_in[75] *932:11 33.8612 
2 *932:11 *932:21 45.1825 
3 *932:21 *932:31 48.5278 
4 *932:31 *1897:A 17.2 
*END

*D_NET *933 0.000405287
*CONN
*P imagem_in[76] I
*I *1898:A I *D BUFx2_ASAP7_75t_R
*CAP
1 imagem_in[76] 3.25654e-05
2 *1898:A 0
3 *933:27 1.79861e-05
4 *933:21 5.73574e-05
5 *933:13 7.19367e-05
6 *933:13 *934:11 5.97383e-07
7 *933:13 *935:13 8.38916e-05
8 *933:13 *936:11 5.97383e-07
9 *933:21 *935:23 3.27476e-05
10 *933:27 *935:29 0
11 *770:8 *933:27 0
12 *770:18 *933:27 0
13 *779:23 *933:27 5.49212e-07
14 *924:25 *933:21 5.19997e-06
15 *924:33 *933:21 1.12157e-05
16 *927:33 *933:21 5.92634e-06
17 *928:11 *933:13 2.64633e-06
18 *928:15 *933:13 8.20699e-05
*RES
1 imagem_in[76] *933:13 46.455 
2 *933:13 *933:21 41.3547 
3 *933:21 *933:27 46.8835 
4 *933:27 *1898:A 17.2 
*END

*D_NET *934 0.000672022
*CONN
*P imagem_in[77] I
*I *1899:A I *D BUFx2_ASAP7_75t_R
*CAP
1 imagem_in[77] 5.90348e-06
2 *1899:A 1.19979e-06
3 *934:23 5.62795e-05
4 *934:15 0.00011086
5 *934:11 6.16838e-05
6 *934:23 *936:25 3.15853e-07
7 *770:8 *1899:A 1.37524e-06
8 *781:14 *934:23 4.56478e-06
9 *924:17 *934:15 3.23125e-07
10 *925:11 *934:11 5.28641e-06
11 *925:19 *934:15 9.61713e-05
12 *927:17 *934:15 0
13 *927:33 *934:23 3.84734e-08
14 *928:11 *934:11 2.98459e-06
15 *928:15 *934:15 0.000307842
16 *928:25 *934:23 1.65967e-05
17 *933:13 *934:11 5.97383e-07
*RES
1 imagem_in[77] *934:11 26.6875 
2 *934:11 *934:15 42.4016 
3 *934:15 *934:23 49.0864 
4 *934:23 *1899:A 35.4325 
*END

*D_NET *935 0.000359166
*CONN
*P imagem_in[78] I
*I *1900:A I *D BUFx2_ASAP7_75t_R
*CAP
1 imagem_in[78] 3.73094e-05
2 *1900:A 0
3 *935:29 2.66897e-05
4 *935:23 3.84498e-05
5 *935:13 4.90695e-05
6 *935:13 *936:11 2.64633e-06
7 *935:13 *936:15 8.33131e-05
8 *924:33 *935:23 3.36871e-06
9 *928:15 *935:13 1.68044e-06
10 *933:13 *935:13 8.38916e-05
11 *933:21 *935:23 3.27476e-05
12 *933:27 *935:29 0
*RES
1 imagem_in[78] *935:13 47.3375 
2 *935:13 *935:23 46.9413 
3 *935:23 *935:29 35.4709 
4 *935:29 *1900:A 17.2 
*END

*D_NET *936 0.000603698
*CONN
*P imagem_in[79] I
*I *1901:A I *D BUFx2_ASAP7_75t_R
*CAP
1 imagem_in[79] 1.07054e-05
2 *1901:A 0
3 *936:25 2.84826e-05
4 *936:15 0.000113507
5 *936:11 9.573e-05
6 *465:8 *936:25 5.37866e-07
7 *479:8 *936:25 2.75183e-06
8 *773:10 *936:25 1.93272e-05
9 *924:25 *936:15 0.000195995
10 *927:25 *936:15 1.3711e-05
11 *928:15 *936:15 0
12 *928:25 *936:25 3.60765e-05
13 *933:13 *936:11 5.97383e-07
14 *934:23 *936:25 3.15853e-07
15 *935:13 *936:11 2.64633e-06
16 *935:13 *936:15 8.33131e-05
*RES
1 imagem_in[79] *936:11 27.9031 
2 *936:11 *936:15 45.2527 
3 *936:15 *936:25 46.821 
4 *936:25 *1901:A 34.4 
*END

*D_NET *937 0.000652235
*CONN
*P imagem_in[7] I
*I *1902:A I *D BUFx2_ASAP7_75t_R
*CAP
1 imagem_in[7] 2.0674e-05
2 *1902:A 0
3 *937:27 1.83156e-05
4 *937:19 4.66806e-05
5 *937:11 4.9039e-05
6 *863:11 *937:11 2.98459e-06
7 *864:17 *937:19 0.000250708
8 *866:11 *937:11 5.22771e-06
9 *871:7 *937:11 7.09752e-06
10 *915:11 *937:11 2.26208e-06
11 *915:17 *937:19 0.000249246
*RES
1 imagem_in[7] *937:11 32.2637 
2 *937:11 *937:19 49.2208 
3 *937:19 *937:27 41.5468 
4 *937:27 *1902:A 17.2 
*END

*D_NET *938 0.000365461
*CONN
*P imagem_in[80] I
*I *1903:A I *D BUFx2_ASAP7_75t_R
*CAP
1 imagem_in[80] 3.05853e-05
2 *1903:A 0
3 *938:29 1.33789e-05
4 *938:21 5.31515e-05
5 *938:11 7.03579e-05
6 *938:11 imagem_out[31] 0
7 *938:11 *946:11 1.02032e-05
8 *938:11 *950:11 1.35523e-06
9 *938:21 *950:19 0
10 *938:21 *950:29 0
11 *938:21 *979:24 5.26001e-05
12 *938:29 *941:13 1.05407e-06
13 *830:10 *938:29 4.51755e-06
14 *849:11 *938:11 1.29412e-05
15 *849:21 *938:21 0.000102176
16 *849:29 *938:29 1.0044e-05
17 *858:5 *938:11 2.70341e-06
18 *858:13 *938:29 3.92018e-07
*RES
1 imagem_in[80] *938:11 30.0045 
2 *938:11 *938:21 46.5936 
3 *938:21 *938:29 38.3884 
4 *938:29 *1903:A 34.4 
*END

*D_NET *939 0.000239821
*CONN
*P imagem_in[81] I
*I *1904:A I *D BUFx2_ASAP7_75t_R
*CAP
1 imagem_in[81] 5.30722e-05
2 *1904:A 0
3 *939:13 8.62967e-06
4 *939:5 6.17019e-05
5 *939:5 *940:5 2.9066e-08
6 *939:5 *947:5 0.000105326
7 *939:13 *940:15 0
8 *939:13 *947:13 1.10619e-05
*RES
1 imagem_in[81] *939:5 40.7219 
2 *939:5 *939:13 34.9299 
3 *939:13 *1904:A 34.4 
*END

*D_NET *940 0.000221776
*CONN
*P imagem_in[82] I
*I *1905:A I *D BUFx2_ASAP7_75t_R
*CAP
1 imagem_in[82] 5.16678e-05
2 *1905:A 0
3 *940:15 4.54924e-06
4 *940:5 5.62171e-05
5 *940:5 *947:5 0.000105886
6 *940:5 *949:11 3.42623e-06
7 *939:5 *940:5 2.9066e-08
8 *939:13 *940:15 0
*RES
1 imagem_in[82] *940:5 40.7219 
2 *940:5 *940:15 48.6868 
3 *940:15 *1905:A 17.2 
*END

*D_NET *941 0.000248046
*CONN
*P imagem_in[83] I
*I *1906:A I *D BUFx2_ASAP7_75t_R
*CAP
1 imagem_in[83] 5.29597e-05
2 *1906:A 0
3 *941:13 3.37302e-05
4 *941:7 8.66899e-05
5 *941:7 imagem_out[27] 6.28595e-06
6 *941:7 *946:11 6.21033e-06
7 *941:7 *950:11 3.42623e-06
8 *941:13 *984:10 0
9 *695:8 *941:13 5.23722e-06
10 *849:29 *941:13 8.42016e-07
11 *858:5 *941:7 5.16106e-05
12 *938:29 *941:13 1.05407e-06
*RES
1 imagem_in[83] *941:7 49.7868 
2 *941:7 *941:13 37.4653 
3 *941:13 *1906:A 34.4 
*END

*D_NET *942 0.000262529
*CONN
*P imagem_in[84] I
*I *1907:A I *D BUFx2_ASAP7_75t_R
*CAP
1 imagem_in[84] 3.98162e-05
2 *1907:A 0
3 *942:13 1.5027e-05
4 *942:5 5.48432e-05
5 *942:5 *943:5 0.000107238
6 *942:13 *943:13 0
7 *920:9 *942:5 4.56045e-05
8 *920:13 *942:13 0
9 *929:5 *942:5 0
*RES
1 imagem_in[84] *942:5 40.7219 
2 *942:5 *942:13 38.5915 
3 *942:13 *1907:A 34.4 
*END

*D_NET *943 0.000262287
*CONN
*P imagem_in[85] I
*I *1908:A I *D BUFx2_ASAP7_75t_R
*CAP
1 imagem_in[85] 3.50977e-05
2 *1908:A 0
3 *943:13 1.07435e-05
4 *943:5 4.58412e-05
5 *943:5 imagem_out[17] 6.63428e-06
6 *943:5 *952:5 5.67332e-05
7 *943:13 *952:13 0
8 *942:5 *943:5 0.000107238
9 *942:13 *943:13 0
*RES
1 imagem_in[85] *943:5 40.7219 
2 *943:5 *943:13 34.9299 
3 *943:13 *1908:A 34.4 
*END

*D_NET *944 0.000201074
*CONN
*P imagem_in[86] I
*I *1909:A I *D BUFx2_ASAP7_75t_R
*CAP
1 imagem_in[86] 4.46221e-05
2 *1909:A 0
3 *944:13 2.40465e-05
4 *944:9 6.86686e-05
5 *944:9 *953:17 0
6 *944:9 *980:36 4.11993e-06
7 *944:13 *953:23 0
8 *850:31 *944:13 0
9 *851:11 *944:9 9.89886e-06
10 *859:5 *944:9 0
11 *860:9 *944:9 4.97177e-05
12 *860:13 *944:13 0
*RES
1 imagem_in[86] *944:9 42.9803 
2 *944:9 *944:13 37.7556 
3 *944:13 *1909:A 34.4 
*END

*D_NET *945 0.000370679
*CONN
*P imagem_in[87] I
*I *1910:A I *D BUFx2_ASAP7_75t_R
*CAP
1 imagem_in[87] 4.363e-06
2 *1910:A 0
3 *945:29 1.02589e-05
4 *945:17 9.58572e-05
5 *945:11 8.99613e-05
6 *945:11 imagem_out[30] 6.39273e-06
7 *945:11 *954:5 3.84312e-06
8 *348:10 *945:29 6.24746e-07
9 *697:8 *945:29 1.93482e-06
10 *697:16 *945:29 1.17643e-06
11 *853:13 *945:17 8.84972e-05
12 *861:17 *945:17 6.77699e-05
*RES
1 imagem_in[87] *945:11 22.2513 
2 *945:11 *945:17 45.1388 
3 *945:17 *945:29 44.5594 
4 *945:29 *1910:A 34.4 
*END

*D_NET *946 0.000544852
*CONN
*P imagem_in[88] I
*I *1911:A I *D BUFx2_ASAP7_75t_R
*CAP
1 imagem_in[88] 5.27394e-06
2 *1911:A 1.57336e-05
3 *946:27 3.24321e-05
4 *946:17 0.000168783
5 *946:11 0.000157359
6 *1911:A *950:29 0
7 *946:17 *979:24 0
8 *946:27 *950:29 8.72704e-07
9 *2041:A *1911:A 7.16615e-06
10 *341:32 *946:27 0
11 *344:28 *946:17 3.49162e-06
12 *695:20 *946:17 4.22183e-06
13 *704:20 *946:17 4.22183e-06
14 *784:16 *1911:A 6.52642e-06
15 *787:8 *1911:A 0
16 *787:39 *946:17 2.05557e-06
17 *792:10 *1911:A 0
18 *796:8 *1911:A 1.84268e-06
19 *796:12 *946:27 4.86221e-07
20 *849:11 *946:11 9.83883e-06
21 *849:21 *946:17 0.000101499
22 *852:13 *946:17 0
23 *858:5 *946:11 6.63428e-06
24 *938:11 *946:11 1.02032e-05
25 *941:7 *946:11 6.21033e-06
*RES
1 imagem_in[88] *946:11 23.752 
2 *946:11 *946:17 48.9 
3 *946:17 *946:27 47.4899 
4 *946:27 *1911:A 46.5081 
*END

*D_NET *947 0.000323937
*CONN
*P imagem_in[89] I
*I *1912:A I *D BUFx2_ASAP7_75t_R
*CAP
1 imagem_in[89] 2.87611e-05
2 *1912:A 0
3 *947:13 2.20701e-05
4 *947:5 5.08312e-05
5 *939:5 *947:5 0.000105326
6 *939:13 *947:13 1.10619e-05
7 *940:5 *947:5 0.000105886
*RES
1 imagem_in[89] *947:5 39.8102 
2 *947:5 *947:13 40.4557 
3 *947:13 *1912:A 34.4 
*END

*D_NET *948 0.00113524
*CONN
*P imagem_in[8] I
*I *1913:A I *D BUFx2_ASAP7_75t_R
*CAP
1 imagem_in[8] 2.19998e-05
2 *1913:A 0
3 *948:31 3.70352e-06
4 *948:25 2.24921e-05
5 *948:13 0.000129708
6 *948:11 0.000132919
7 *948:11 imagem_out[15] 0
8 *614:11 *948:11 7.26931e-06
9 *614:13 *948:13 0.000574469
10 *811:32 *948:13 0
11 *812:28 *948:13 0
12 *885:11 *948:11 0
13 *894:9 *948:11 0
14 *919:11 *948:11 3.23778e-06
15 *919:21 *948:13 0.000239443
*RES
1 imagem_in[8] *948:11 29.3746 
2 *948:11 *948:13 59.6453 
3 *948:13 *948:25 37.6876 
4 *948:25 *948:31 36.9342 
5 *948:31 *1913:A 17.2 
*END

*D_NET *949 0.000498401
*CONN
*P imagem_in[90] I
*I *1914:A I *D BUFx2_ASAP7_75t_R
*CAP
1 imagem_in[90] 5.62683e-06
2 *1914:A 0
3 *949:31 2.33067e-06
4 *949:25 6.76978e-05
5 *949:15 0.000223471
6 *949:11 0.000163731
7 *949:15 *950:19 0
8 *1707:B *949:31 9.66144e-08
9 *786:20 *949:25 0
10 *787:39 *949:25 2.89123e-05
11 *793:8 *949:31 6.36702e-07
12 *796:39 *949:25 2.47149e-06
13 *940:5 *949:11 3.42623e-06
*RES
1 imagem_in[90] *949:11 21.8712 
2 *949:11 *949:15 40.6246 
3 *949:15 *949:25 42.5066 
4 *949:25 *949:31 35.9956 
5 *949:31 *1914:A 17.2 
*END

*D_NET *950 0.000342963
*CONN
*P imagem_in[91] I
*I *1915:A I *D BUFx2_ASAP7_75t_R
*CAP
1 imagem_in[91] 2.17799e-05
2 *1915:A 0
3 *950:29 2.64499e-05
4 *950:19 9.70281e-05
5 *950:11 9.23581e-05
6 *950:11 imagem_out[27] 7.18539e-06
7 *950:19 *979:24 9.25073e-05
8 *1911:A *950:29 0
9 *849:21 *950:19 0
10 *938:11 *950:11 1.35523e-06
11 *938:21 *950:19 0
12 *938:21 *950:29 0
13 *941:7 *950:11 3.42623e-06
14 *946:27 *950:29 8.72704e-07
15 *949:15 *950:19 0
*RES
1 imagem_in[91] *950:11 26.4329 
2 *950:11 *950:19 47.4928 
3 *950:19 *950:29 38.1 
4 *950:29 *1915:A 34.4 
*END

*D_NET *951 0.000198162
*CONN
*P imagem_in[92] I
*I *1916:A I *D BUFx2_ASAP7_75t_R
*CAP
1 imagem_in[92] 5.4184e-05
2 *1916:A 0
3 *951:13 1.3936e-05
4 *951:5 6.812e-05
5 *951:5 imagem_out[16] 3.42623e-06
6 *951:5 *952:5 5.84954e-05
7 *951:5 *953:11 0
8 *951:5 *953:17 0
9 *951:13 *952:13 0
10 *951:13 *953:23 0
11 *850:31 *951:13 0
*RES
1 imagem_in[92] *951:5 39.8102 
2 *951:5 *951:13 37.2974 
3 *951:13 *1916:A 34.4 
*END

*D_NET *952 0.000250457
*CONN
*P imagem_in[93] I
*I *1917:A I *D BUFx2_ASAP7_75t_R
*CAP
1 imagem_in[93] 3.98792e-05
2 *1917:A 0
3 *952:13 1.64246e-05
4 *952:5 5.63038e-05
5 *952:5 imagem_out[16] 3.42623e-06
6 *952:5 imagem_out[17] 6.21033e-06
7 *789:8 *952:13 1.29846e-05
8 *943:5 *952:5 5.67332e-05
9 *943:13 *952:13 0
10 *951:5 *952:5 5.84954e-05
11 *951:13 *952:13 0
*RES
1 imagem_in[93] *952:5 40.7219 
2 *952:5 *952:13 40.4312 
3 *952:13 *1917:A 34.4 
*END

*D_NET *953 0.000176765
*CONN
*P imagem_in[94] I
*I *1918:A I *D BUFx2_ASAP7_75t_R
*CAP
1 imagem_in[94] 1.29431e-05
2 *1918:A 0
3 *953:23 1.00751e-05
4 *953:17 6.83645e-05
5 *953:11 7.12325e-05
6 *953:11 imagem_out[28] 8.89986e-06
7 *953:11 *980:36 1.50045e-06
8 *953:17 *980:36 2.66631e-06
9 *850:25 *953:17 2.53875e-07
10 *850:31 *953:23 8.29207e-07
11 *944:9 *953:17 0
12 *944:13 *953:23 0
13 *951:5 *953:11 0
14 *951:5 *953:17 0
15 *951:13 *953:23 0
*RES
1 imagem_in[94] *953:11 30.9306 
2 *953:11 *953:17 44.6517 
3 *953:17 *953:23 42.1905 
4 *953:23 *1918:A 17.2 
*END

*D_NET *954 0.000236162
*CONN
*P imagem_in[95] I
*I *1919:A I *D BUFx2_ASAP7_75t_R
*CAP
1 imagem_in[95] 5.42321e-05
2 *1919:A 3.36099e-06
3 *954:13 2.4419e-05
4 *954:5 7.52901e-05
5 *954:5 imagem_out[30] 2.70341e-06
6 *851:29 *954:13 1.14082e-05
7 *853:11 *954:5 3.42623e-06
8 *859:5 *954:5 5.74784e-05
9 *859:13 *954:13 0
10 *945:11 *954:5 3.84312e-06
*RES
1 imagem_in[95] *954:5 39.8102 
2 *954:5 *954:13 43.0152 
3 *954:13 *1919:A 36.0045 
*END

*D_NET *955 0.000512508
*CONN
*P imagem_in[96] I
*I *1920:A I *D BUFx2_ASAP7_75t_R
*CAP
1 imagem_in[96] 2.24035e-05
2 *1920:A 0
3 *955:27 1.31552e-05
4 *955:19 4.0626e-05
5 *955:11 4.98743e-05
6 *955:11 *956:13 2.98459e-06
7 *955:11 *957:13 1.33146e-06
8 *955:11 *958:13 0
9 *460:9 *955:11 7.42167e-06
10 *461:11 *955:11 2.66115e-05
11 *461:17 *955:19 0.000244453
12 *613:21 *955:27 0
13 *845:11 *955:11 3.23631e-06
14 *845:17 *955:19 0.000100411
*RES
1 imagem_in[96] *955:11 35.9104 
2 *955:11 *955:19 47.8908 
3 *955:19 *955:27 39.0578 
4 *955:27 *1920:A 17.2 
*END

*D_NET *956 0.00032925
*CONN
*P imagem_in[97] I
*I *1921:A I *D BUFx2_ASAP7_75t_R
*CAP
1 imagem_in[97] 6.78845e-05
2 *1921:A 0
3 *956:27 1.67078e-06
4 *956:21 4.98705e-05
5 *956:13 0.000116084
6 *956:13 *957:13 8.30679e-05
7 *956:13 *958:13 1.37396e-06
8 *956:21 *957:21 5.38862e-06
9 *531:19 *956:13 0
10 *613:13 *956:13 0
11 *613:21 *956:21 0
12 *681:8 *956:27 9.24628e-07
13 *955:11 *956:13 2.98459e-06
*RES
1 imagem_in[97] *956:13 47.2624 
2 *956:13 *956:21 39.2284 
3 *956:21 *956:27 35.6202 
4 *956:27 *1921:A 17.2 
*END

*D_NET *957 0.00041496
*CONN
*P imagem_in[98] I
*I *1922:A I *D BUFx2_ASAP7_75t_R
*CAP
1 imagem_in[98] 3.53627e-05
2 *1922:A 0
3 *957:27 1.05774e-06
4 *957:21 5.1388e-05
5 *957:13 8.56929e-05
6 *957:13 *958:13 7.38856e-05
7 *957:21 *958:23 2.09989e-05
8 *1664:A *957:27 6.70946e-07
9 *530:17 *957:13 1.36851e-06
10 *531:19 *957:13 0
11 *531:27 *957:21 0
12 *684:12 *957:21 5.47462e-05
13 *955:11 *957:13 1.33146e-06
14 *956:13 *957:13 8.30679e-05
15 *956:21 *957:21 5.38862e-06
*RES
1 imagem_in[98] *957:13 45.8848 
2 *957:13 *957:21 46.3523 
3 *957:21 *957:27 35.2447 
4 *957:27 *1922:A 17.2 
*END

*D_NET *958 0.000287345
*CONN
*P imagem_in[99] I
*I *1923:A I *D BUFx2_ASAP7_75t_R
*CAP
1 imagem_in[99] 4.02889e-05
2 *1923:A 8.76651e-06
3 *958:23 2.48782e-05
4 *958:13 5.64006e-05
5 *435:21 *958:23 0
6 *460:9 *958:13 0
7 *530:17 *958:13 1.01304e-05
8 *531:19 *958:13 5.0233e-05
9 *531:27 *958:23 3.88563e-07
10 *804:10 *1923:A 0
11 *955:11 *958:13 0
12 *956:13 *958:13 1.37396e-06
13 *957:13 *958:13 7.38856e-05
14 *957:21 *958:23 2.09989e-05
*RES
1 imagem_in[99] *958:13 48.5405 
2 *958:13 *958:23 49.7418 
3 *958:23 *1923:A 40.1255 
*END

*D_NET *959 0.000234735
*CONN
*P imagem_in[9] I
*I *1924:A I *D BUFx2_ASAP7_75t_R
*CAP
1 imagem_in[9] 4.0473e-05
2 *1924:A 0
3 *959:13 3.28522e-05
4 *959:7 7.33251e-05
5 *1836:A *959:13 3.42616e-05
6 *865:13 *959:7 4.03334e-06
7 *866:11 *959:7 4.70985e-06
8 *871:7 *959:7 0
9 *871:11 *959:13 8.04825e-06
10 *926:9 *959:7 3.70312e-05
*RES
1 imagem_in[9] *959:7 44.5253 
2 *959:7 *959:13 49.3764 
3 *959:13 *1924:A 17.2 
*END

*D_NET *960 0.000528509
*CONN
*P imagem_out[0] O
*I *1925:Y O *D BUFx3_ASAP7_75t_R
*CAP
1 imagem_out[0] 4.79526e-06
2 *1925:Y 1.25675e-05
3 *960:24 0.000108903
4 *960:22 0.000104108
5 *960:20 1.47077e-05
6 *960:8 2.72752e-05
7 imagem_out[0] imagem_out[1] 6.88159e-06
8 *960:8 *971:8 0
9 *960:24 *971:24 0.000176602
10 *614:13 *960:24 0
11 *885:21 *960:24 6.38583e-05
12 *886:13 *960:24 0
13 *894:9 imagem_out[0] 4.06923e-06
14 *895:21 *960:24 4.74143e-06
*RES
1 *1925:Y *960:8 43.5045 
2 *960:8 *960:20 44.8882 
3 *960:20 *960:22 8.2 
4 *960:22 *960:24 49.2374 
5 *960:24 imagem_out[0] 23.0867 
*END

*D_NET *961 0.000474066
*CONN
*P imagem_out[10] O
*I *1926:Y O *D BUFx3_ASAP7_75t_R
*CAP
1 imagem_out[10] 3.47353e-05
2 *1926:Y 2.40274e-06
3 *961:24 0.000169197
4 *961:20 0.000144413
5 *961:8 1.23541e-05
6 *203:8 *961:8 1.12894e-06
7 *245:12 *961:8 0
8 *385:14 *961:20 7.09277e-07
9 *389:26 *961:20 2.71682e-06
10 *905:13 imagem_out[10] 6.52189e-06
11 *905:13 *961:24 6.64162e-06
12 *913:11 imagem_out[10] 1.60468e-05
13 *913:21 *961:24 6.38446e-05
14 *914:9 imagem_out[10] 1.33542e-05
*RES
1 *1926:Y *961:8 36.1834 
2 *961:8 *961:20 43.5896 
3 *961:20 *961:24 48.6307 
4 *961:24 imagem_out[10] 33.4059 
*END

*D_NET *962 0.00038709
*CONN
*P imagem_out[11] O
*I *1927:Y O *D BUFx3_ASAP7_75t_R
*CAP
1 imagem_out[11] 1.13072e-05
2 *1927:Y 1.43398e-05
3 *962:24 6.40787e-05
4 *962:16 8.94789e-05
5 *962:8 5.10471e-05
6 *398:30 *962:8 4.79691e-06
7 *399:117 *962:8 6.62618e-06
8 *753:31 *962:8 6.37325e-06
9 *754:18 *962:8 9.97906e-07
10 *872:11 imagem_out[11] 0
11 *872:13 *962:24 0
12 *906:11 imagem_out[11] 0
13 *906:19 *962:24 6.38583e-05
14 *907:13 *962:24 3.79258e-06
15 *908:13 *962:24 7.03927e-05
*RES
1 *1927:Y *962:8 47.259 
2 *962:8 *962:16 39.6997 
3 *962:16 *962:24 49.2294 
4 *962:24 imagem_out[11] 23.752 
*END

*D_NET *963 0.000542632
*CONN
*P imagem_out[12] O
*I *1928:Y O *D BUFx3_ASAP7_75t_R
*CAP
1 imagem_out[12] 1.43403e-05
2 *1928:Y 1.35831e-05
3 *963:24 0.000107495
4 *963:22 9.31548e-05
5 *963:20 8.74174e-06
6 *963:8 2.23248e-05
7 imagem_out[12] imagem_out[13] 6.88159e-06
8 *963:8 *964:8 0
9 *963:20 *964:20 1.31606e-08
10 *963:24 *964:24 2.08935e-05
11 *1998:A *963:8 8.49118e-06
12 *387:24 *963:20 4.94918e-06
13 *389:34 *963:20 1.0432e-06
14 *729:24 *963:24 5.16993e-05
15 *874:13 *963:24 0
16 *883:13 imagem_out[12] 2.58868e-06
17 *883:13 *963:24 7.59131e-05
18 *884:21 *963:24 0
19 *916:21 *963:24 0.000110519
*RES
1 *1928:Y *963:8 44.6308 
2 *963:8 *963:20 43.4259 
3 *963:20 *963:22 8.2 
4 *963:22 *963:24 42.0319 
5 *963:24 imagem_out[12] 24.8924 
*END

*D_NET *964 0.000479156
*CONN
*P imagem_out[13] O
*I *1929:Y O *D BUFx3_ASAP7_75t_R
*CAP
1 imagem_out[13] 3.21038e-05
2 *1929:Y 2.72279e-06
3 *964:24 0.000102127
4 *964:20 7.89278e-05
5 *964:8 1.16275e-05
6 imagem_out[12] imagem_out[13] 6.88159e-06
7 *387:24 *964:20 6.74888e-06
8 *389:34 *964:20 7.74129e-07
9 *559:8 *964:8 0
10 *872:13 *964:24 9.67855e-05
11 *883:13 imagem_out[13] 0
12 *907:13 imagem_out[13] 1.06353e-06
13 *916:11 imagem_out[13] 0
14 *916:21 *964:24 9.21874e-05
15 *917:9 imagem_out[13] 2.62995e-05
16 *963:8 *964:8 0
17 *963:20 *964:20 1.31606e-08
18 *963:24 *964:24 2.08935e-05
*RES
1 *1929:Y *964:8 36.1834 
2 *964:8 *964:20 43.3995 
3 *964:20 *964:24 45.4283 
4 *964:24 imagem_out[13] 34.0866 
*END

*D_NET *965 0.000318813
*CONN
*P imagem_out[14] O
*I *1930:Y O *D BUFx3_ASAP7_75t_R
*CAP
1 imagem_out[14] 4.5112e-06
2 *1930:Y 1.6969e-05
3 *965:24 4.87236e-05
4 *965:16 6.90253e-05
5 *965:8 4.17819e-05
6 imagem_out[14] imagem_out[15] 6.88159e-06
7 imagem_out[14] *966:30 1.14496e-07
8 *965:16 *966:20 5.37674e-07
9 *965:24 *966:30 6.90799e-05
10 *614:13 *965:24 0
11 *811:32 *965:24 0
12 *811:40 *965:16 0
13 *874:13 *965:24 0
14 *875:21 *965:24 0
15 *910:9 imagem_out[14] 7.07944e-06
16 *919:21 *965:24 5.41085e-05
*RES
1 *1930:Y *965:8 48.0098 
2 *965:8 *965:16 38.895 
3 *965:16 *965:24 41.8886 
4 *965:24 imagem_out[14] 23.0867 
*END

*D_NET *966 0.000331449
*CONN
*P imagem_out[15] O
*I *1931:Y O *D BUFx3_ASAP7_75t_R
*CAP
1 imagem_out[15] 8.16166e-06
2 *1931:Y 1.36944e-05
3 *966:30 8.48012e-05
4 *966:20 8.95315e-05
5 *966:8 2.65863e-05
6 imagem_out[14] imagem_out[15] 6.88159e-06
7 imagem_out[14] *966:30 1.14496e-07
8 *875:21 *966:30 0
9 *910:9 imagem_out[15] 6.95822e-06
10 *910:13 *966:8 1.08069e-05
11 *918:7 *966:20 7.42844e-07
12 *919:11 imagem_out[15] 1.35521e-05
13 *948:11 imagem_out[15] 0
14 *965:16 *966:20 5.37674e-07
15 *965:24 *966:30 6.90799e-05
*RES
1 *1931:Y *966:8 48.0098 
2 *966:8 *966:20 44.4817 
3 *966:20 *966:30 48.4067 
4 *966:30 imagem_out[15] 7.52139 
*END

*D_NET *967 0.000439816
*CONN
*P imagem_out[16] O
*I *1932:Y O *D BUFx3_ASAP7_75t_R
*CAP
1 imagem_out[16] 2.66547e-05
2 *1932:Y 1.13667e-06
3 *967:24 0.000145502
4 *967:20 0.000127882
5 *967:8 1.01715e-05
6 imagem_out[16] imagem_out[17] 6.02153e-06
7 *967:24 *968:24 0.000113765
8 *813:12 *967:8 0
9 *814:12 *967:8 1.83015e-06
10 *951:5 imagem_out[16] 3.42623e-06
11 *952:5 imagem_out[16] 3.42623e-06
*RES
1 *1932:Y *967:8 35.8079 
2 *967:8 *967:20 42.8694 
3 *967:20 *967:24 49.4313 
4 *967:24 imagem_out[16] 26.718 
*END

*D_NET *968 0.000392104
*CONN
*P imagem_out[17] O
*I *1933:Y O *D BUFx3_ASAP7_75t_R
*CAP
1 imagem_out[17] 5.81564e-06
2 *1933:Y 1.52408e-06
3 *968:24 0.000120096
4 *968:20 0.000121906
5 *968:8 9.14976e-06
6 imagem_out[16] imagem_out[17] 6.02153e-06
7 *788:14 *968:8 3.36331e-07
8 *798:18 *968:8 0
9 *814:12 *968:8 6.44435e-07
10 *943:5 imagem_out[17] 6.63428e-06
11 *952:5 imagem_out[17] 6.21033e-06
12 *967:24 *968:24 0.000113765
*RES
1 *1933:Y *968:8 35.8079 
2 *968:8 *968:20 42.4365 
3 *968:20 *968:24 48.6307 
4 *968:24 imagem_out[17] 23.3718 
*END

*D_NET *969 0.000426033
*CONN
*P imagem_out[18] O
*I *1934:Y O *D BUFx3_ASAP7_75t_R
*CAP
1 imagem_out[18] 9.93894e-06
2 *1934:Y 5.03064e-06
3 *969:24 0.000107013
4 *969:20 0.000108113
5 *969:8 1.60695e-05
6 *442:8 *969:8 9.94583e-06
7 *767:16 *969:8 0
8 *921:25 *969:24 6.05231e-05
9 *930:11 imagem_out[18] 7.17187e-06
10 *930:21 *969:24 0.000102226
11 *931:11 imagem_out[18] 0
*RES
1 *1934:Y *969:8 38.6237 
2 *969:8 *969:20 43.2759 
3 *969:20 *969:24 48.6307 
4 *969:24 imagem_out[18] 23.4669 
*END

*D_NET *970 0.000626535
*CONN
*P imagem_out[19] O
*I *1935:Y O *D BUFx3_ASAP7_75t_R
*CAP
1 imagem_out[19] 4.81674e-06
2 *1935:Y 1.06576e-05
3 *970:22 9.20204e-05
4 *970:20 9.73006e-05
5 *970:10 2.07546e-05
6 imagem_out[19] imagem_out[20] 2.98459e-06
7 imagem_out[19] imagem_out[23] 2.64633e-06
8 *970:22 *972:24 0.000131366
9 *970:22 *974:24 0
10 *970:22 *975:26 0.00025128
11 *185:10 *970:10 0
12 *322:29 *970:10 9.31558e-06
13 *821:12 *970:10 3.3921e-06
*RES
1 *1935:Y *970:10 40.3593 
2 *970:10 *970:20 43.3776 
3 *970:20 *970:22 39.725 
4 *970:22 imagem_out[19] 25.8218 
*END

*D_NET *971 0.000717245
*CONN
*P imagem_out[1] O
*I *1936:Y O *D BUFx3_ASAP7_75t_R
*CAP
1 imagem_out[1] 1.41475e-05
2 *1936:Y 6.91635e-06
3 *971:24 0.000108639
4 *971:22 9.44913e-05
5 *971:20 2.11631e-05
6 *971:8 2.80795e-05
7 imagem_out[0] imagem_out[1] 6.88159e-06
8 *228:10 *971:8 3.99964e-06
9 *228:21 *971:8 3.32524e-06
10 *894:9 imagem_out[1] 0
11 *895:11 imagem_out[1] 1.35521e-05
12 *895:21 *971:24 0.000239448
13 *960:8 *971:8 0
14 *960:24 *971:24 0.000176602
*RES
1 *1936:Y *971:8 40.501 
2 *971:8 *971:20 47.126 
3 *971:20 *971:22 8.2 
4 *971:22 *971:24 47.6362 
5 *971:24 imagem_out[1] 28.3292 
*END

*D_NET *972 0.000578056
*CONN
*P imagem_out[20] O
*I *1937:Y O *D BUFx3_ASAP7_75t_R
*CAP
1 imagem_out[20] 1.99868e-06
2 *1937:Y 8.81037e-07
3 *972:24 5.51067e-05
4 *972:18 5.80469e-05
5 *972:8 5.8199e-06
6 imagem_out[20] imagem_out[21] 5.37225e-06
7 imagem_out[20] imagem_out[23] 6.6573e-07
8 *972:24 *973:24 0.000303484
9 *972:24 *974:24 2.97428e-06
10 imagem_out[19] imagem_out[20] 2.98459e-06
11 *1937:A *972:8 2.35285e-06
12 *322:12 *972:18 1.58111e-06
13 *819:12 *972:8 5.4219e-06
14 *970:22 *972:24 0.000131366
*RES
1 *1937:Y *972:8 36.1834 
2 *972:8 *972:18 42.3599 
3 *972:18 *972:24 45.2143 
4 *972:24 imagem_out[20] 13.7479 
*END

*D_NET *973 0.000579952
*CONN
*P imagem_out[21] O
*I *1938:Y O *D BUFx3_ASAP7_75t_R
*CAP
1 imagem_out[21] 4.41216e-06
2 *1938:Y 8.14821e-06
3 *973:24 5.04844e-05
4 *973:18 5.36405e-05
5 *973:8 1.57164e-05
6 imagem_out[21] imagem_out[22] 2.64633e-06
7 *973:18 *974:18 1.34748e-06
8 *973:24 *974:24 0.000121162
9 imagem_out[20] imagem_out[21] 5.37225e-06
10 *1492:A1 *973:8 3.56738e-06
11 *583:68 *973:8 5.90625e-06
12 *587:10 *973:8 4.06435e-06
13 *972:24 *973:24 0.000303484
*RES
1 *1938:Y *973:8 42.1905 
2 *973:8 *973:18 42.9907 
3 *973:18 *973:24 42.971 
4 *973:24 imagem_out[21] 14.6137 
*END

*D_NET *974 0.000366854
*CONN
*P imagem_out[22] O
*I *1939:Y O *D BUFx3_ASAP7_75t_R
*CAP
1 imagem_out[22] 2.00193e-06
2 *1939:Y 2.94235e-06
3 *974:24 0.000100467
4 *974:18 0.000109007
5 *974:8 1.34842e-05
6 imagem_out[21] imagem_out[22] 2.64633e-06
7 *322:12 *974:18 4.01828e-06
8 *435:13 imagem_out[22] 0
9 *435:13 *974:24 0
10 *583:68 *974:8 6.54274e-06
11 *587:10 *974:8 2.59962e-07
12 *840:13 *974:24 0
13 *970:22 *974:24 0
14 *972:24 *974:24 2.97428e-06
15 *973:18 *974:18 1.34748e-06
16 *973:24 *974:24 0.000121162
*RES
1 *1939:Y *974:8 36.7465 
2 *974:8 *974:18 44.7888 
3 *974:18 *974:24 44.0738 
4 *974:24 imagem_out[22] 12.8822 
*END

*D_NET *975 0.000417951
*CONN
*P imagem_out[23] O
*I *1940:Y O *D BUFx3_ASAP7_75t_R
*CAP
1 imagem_out[23] 3.75762e-06
2 *1940:Y 3.22873e-06
3 *975:26 6.64102e-05
4 *975:18 7.46932e-05
5 *975:8 1.52694e-05
6 imagem_out[19] imagem_out[23] 2.64633e-06
7 imagem_out[20] imagem_out[23] 6.6573e-07
8 *1492:A1 *975:8 0
9 *927:17 *975:26 0
10 *970:22 *975:26 0.00025128
*RES
1 *1940:Y *975:8 36.1834 
2 *975:8 *975:18 44.3078 
3 *975:18 *975:26 48.461 
4 *975:26 imagem_out[23] 1.94794 
*END

*D_NET *976 0.000156297
*CONN
*P imagem_out[24] O
*I *1941:Y O *D BUFx3_ASAP7_75t_R
*CAP
1 imagem_out[24] 7.185e-06
2 *1941:Y 0
3 *976:6 7.81487e-05
4 *976:4 7.09637e-05
5 imagem_out[24] imagem_out[26] 0
*RES
1 *1941:Y *976:4 17.2 
2 *976:4 *976:6 62.5745 
3 *976:6 imagem_out[24] 37.6377 
*END

*D_NET *977 0.000217818
*CONN
*P imagem_out[25] O
*I *1942:Y O *D BUFx3_ASAP7_75t_R
*CAP
1 imagem_out[25] 8.00606e-05
2 *1942:Y 3.96467e-06
3 *977:10 8.00606e-05
4 *977:8 3.96467e-06
5 imagem_out[25] imagem_out[26] 4.97671e-05
*RES
1 *1942:Y *977:8 36.9342 
2 *977:8 *977:10 17.2 
3 *977:10 imagem_out[25] 38.3636 
*END

*D_NET *978 0.000223426
*CONN
*P imagem_out[26] O
*I *1943:Y O *D BUFx3_ASAP7_75t_R
*CAP
1 imagem_out[26] 2.48894e-05
2 *1943:Y 0
3 *978:12 3.19638e-05
4 *978:6 6.19402e-05
5 *978:4 5.48658e-05
6 imagem_out[24] imagem_out[26] 0
7 imagem_out[25] imagem_out[26] 4.97671e-05
*RES
1 *1943:Y *978:4 17.2 
2 *978:4 *978:6 40.1119 
3 *978:6 *978:12 38.8115 
4 *978:12 imagem_out[26] 18.2349 
*END

*D_NET *979 0.000585086
*CONN
*P imagem_out[27] O
*I *1944:Y O *D BUFx3_ASAP7_75t_R
*CAP
1 imagem_out[27] 2.06545e-05
2 *1944:Y 1.58627e-06
3 *979:24 9.82792e-05
4 *979:22 7.76246e-05
5 *979:20 6.7957e-06
6 *979:8 8.38197e-06
7 *628:30 *979:20 1.48845e-06
8 *631:33 *979:20 4.75536e-07
9 *695:28 *979:24 0.000150323
10 *704:26 *979:24 6.08977e-05
11 *938:21 *979:24 5.26001e-05
12 *941:7 imagem_out[27] 6.28595e-06
13 *946:17 *979:24 0
14 *950:11 imagem_out[27] 7.18539e-06
15 *950:19 *979:24 9.25073e-05
*RES
1 *1944:Y *979:8 35.2447 
2 *979:8 *979:20 42.5448 
3 *979:20 *979:22 8.2 
4 *979:22 *979:24 45.2344 
5 *979:24 imagem_out[27] 28.6342 
*END

*D_NET *980 0.000726956
*CONN
*P imagem_out[28] O
*I *1945:Y O *D BUFx3_ASAP7_75t_R
*CAP
1 imagem_out[28] 3.28882e-06
2 *1945:Y 9.78837e-06
3 *980:36 2.01161e-05
4 *980:24 8.11226e-05
5 *980:22 6.42954e-05
6 *980:20 1.01715e-05
7 *980:8 1.99599e-05
8 imagem_out[28] imagem_out[29] 6.40841e-06
9 *980:24 *981:24 8.24803e-05
10 *980:24 *983:24 0
11 *1946:A *980:8 0
12 *631:47 *980:20 5.66897e-07
13 *631:81 *980:20 0
14 *636:10 *980:8 2.558e-05
15 *696:24 *980:24 0.000151971
16 *697:28 *980:24 0.000159763
17 *826:10 *980:8 2.68933e-07
18 *850:13 *980:24 6.70313e-05
19 *851:11 imagem_out[28] 2.9066e-08
20 *851:11 *980:36 6.92774e-06
21 *944:9 *980:36 4.11993e-06
22 *953:11 imagem_out[28] 8.89986e-06
23 *953:11 *980:36 1.50045e-06
24 *953:17 *980:36 2.66631e-06
*RES
1 *1945:Y *980:8 43.1291 
2 *980:8 *980:20 43.1122 
3 *980:20 *980:22 8.2 
4 *980:22 *980:24 45.2344 
5 *980:24 *980:36 39.2468 
6 *980:36 imagem_out[28] 15.1428 
*END

*D_NET *981 0.000478301
*CONN
*P imagem_out[29] O
*I *1946:Y O *D BUFx3_ASAP7_75t_R
*CAP
1 imagem_out[29] 1.19023e-05
2 *1946:Y 1.31002e-06
3 *981:24 0.000147311
4 *981:22 0.000135409
5 *981:20 1.04351e-05
6 *981:8 1.17451e-05
7 imagem_out[28] imagem_out[29] 6.40841e-06
8 *1946:A *981:8 0
9 *631:47 *981:20 2.60114e-06
10 *696:24 *981:24 6.22906e-05
11 *850:13 *981:24 0
12 *851:11 imagem_out[29] 6.40841e-06
13 *980:24 *981:24 8.24803e-05
*RES
1 *1946:Y *981:8 35.2447 
2 *981:8 *981:20 43.5874 
3 *981:20 *981:22 8.2 
4 *981:22 *981:24 47.6362 
5 *981:24 imagem_out[29] 24.1321 
*END

*D_NET *982 0.000178259
*CONN
*P imagem_out[2] O
*I *1947:Y O *D BUFx3_ASAP7_75t_R
*CAP
1 imagem_out[2] 2.67723e-06
2 *1947:Y 0
3 *982:6 7.00999e-05
4 *982:4 6.74226e-05
5 imagem_out[2] imagem_out[4] 1.93998e-06
6 imagem_out[2] imagem_out[7] 1.41679e-06
7 *982:6 *986:6 0
8 *982:6 *988:6 0
9 *982:6 *989:6 3.47025e-05
*RES
1 *1947:Y *982:4 17.2 
2 *982:4 *982:6 62.5745 
3 *982:6 imagem_out[2] 35.9482 
*END

*D_NET *983 0.000676263
*CONN
*P imagem_out[30] O
*I *1948:Y O *D BUFx3_ASAP7_75t_R
*CAP
1 imagem_out[30] 2.80057e-05
2 *1948:Y 1.54982e-06
3 *983:24 0.00011587
4 *983:22 8.7864e-05
5 *983:20 2.55835e-05
6 *983:8 2.71333e-05
7 imagem_out[30] imagem_out[31] 0
8 *628:32 *983:20 1.20932e-06
9 *628:38 *983:20 2.54697e-06
10 *631:37 *983:20 7.74994e-07
11 *631:41 *983:20 7.67075e-07
12 *697:28 *983:24 0
13 *706:28 *983:24 0.000149995
14 *850:13 *983:24 3.76273e-06
15 *851:21 *983:24 9.18413e-05
16 *852:11 imagem_out[30] 3.84312e-06
17 *853:11 imagem_out[30] 2.96649e-06
18 *853:13 *983:24 0.000121593
19 *861:11 imagem_out[30] 1.86022e-06
20 *945:11 imagem_out[30] 6.39273e-06
21 *954:5 imagem_out[30] 2.70341e-06
22 *980:24 *983:24 0
*RES
1 *1948:Y *983:8 35.2447 
2 *983:8 *983:20 49.5394 
3 *983:20 *983:22 8.2 
4 *983:22 *983:24 46.8356 
5 *983:24 imagem_out[30] 28.769 
*END

*D_NET *984 0.000288801
*CONN
*P imagem_out[31] O
*I *1949:Y O *D BUFx3_ASAP7_75t_R
*CAP
1 imagem_out[31] 3.83212e-05
2 *1949:Y 7.27485e-06
3 *984:14 9.21872e-05
4 *984:10 9.8682e-05
5 *984:8 5.20909e-05
6 imagem_out[30] imagem_out[31] 0
7 *695:8 *984:10 2.45021e-07
8 *861:11 imagem_out[31] 0
9 *938:11 imagem_out[31] 0
10 *941:13 *984:10 0
*RES
1 *1949:Y *984:8 37.0741 
2 *984:8 *984:10 41.205 
3 *984:10 *984:14 41.6034 
4 *984:14 imagem_out[31] 30.6415 
*END

*D_NET *985 0.000251683
*CONN
*P imagem_out[3] O
*I *1950:Y O *D BUFx3_ASAP7_75t_R
*CAP
1 imagem_out[3] 5.60962e-05
2 *1950:Y 3.60121e-05
3 *985:12 6.52678e-05
4 *985:6 4.51837e-05
5 imagem_out[3] imagem_out[5] 1.91008e-06
6 imagem_out[3] imagem_out[6] 3.20755e-06
7 imagem_out[3] imagem_out[7] 2.49926e-05
8 *985:6 *987:6 0
9 *985:6 *988:6 1.6716e-05
10 *834:14 *985:6 2.29685e-06
*RES
1 *1950:Y *985:6 44.4761 
2 *985:6 *985:12 40.8764 
3 *985:12 imagem_out[3] 27.9746 
*END

*D_NET *986 0.000180024
*CONN
*P imagem_out[4] O
*I *1951:Y O *D BUFx3_ASAP7_75t_R
*CAP
1 imagem_out[4] 2.59705e-05
2 *1951:Y 0
3 *986:12 3.38099e-05
4 *986:6 5.0575e-05
5 *986:4 4.27356e-05
6 imagem_out[4] imagem_out[7] 2.49926e-05
7 imagem_out[2] imagem_out[4] 1.93998e-06
8 *982:6 *986:6 0
*RES
1 *1951:Y *986:4 17.2 
2 *986:4 *986:6 34.7636 
3 *986:6 *986:12 40.1255 
4 *986:12 imagem_out[4] 17.5856 
*END

*D_NET *987 0.000174998
*CONN
*P imagem_out[5] O
*I *1952:Y O *D BUFx3_ASAP7_75t_R
*CAP
1 imagem_out[5] 1.2192e-05
2 *1952:Y 0
3 *987:6 8.64094e-05
4 *987:4 7.42175e-05
5 imagem_out[5] imagem_out[6] 2.68812e-07
6 *987:6 *988:6 0
7 imagem_out[3] imagem_out[5] 1.91008e-06
8 *843:11 imagem_out[5] 0
9 *904:13 *987:6 0
10 *985:6 *987:6 0
*RES
1 *1952:Y *987:4 17.2 
2 *987:4 *987:6 62.5745 
3 *987:6 imagem_out[5] 43.6448 
*END

*D_NET *988 0.000180331
*CONN
*P imagem_out[6] O
*I *1953:Y O *D BUFx3_ASAP7_75t_R
*CAP
1 imagem_out[6] 1.03371e-05
2 *1953:Y 0
3 *988:6 7.82041e-05
4 *988:4 6.7867e-05
5 imagem_out[6] imagem_out[7] 3.73073e-06
6 *988:6 *989:6 0
7 imagem_out[3] imagem_out[6] 3.20755e-06
8 imagem_out[5] imagem_out[6] 2.68812e-07
9 *982:6 *988:6 0
10 *985:6 *988:6 1.6716e-05
11 *987:6 *988:6 0
*RES
1 *1953:Y *988:4 17.2 
2 *988:4 *988:6 61.5049 
3 *988:6 imagem_out[6] 41.8537 
*END

*D_NET *989 0.000255308
*CONN
*P imagem_out[7] O
*I *1954:Y O *D BUFx3_ASAP7_75t_R
*CAP
1 imagem_out[7] 2.66893e-05
2 *1954:Y 0
3 *989:12 2.8108e-05
4 *989:6 5.60472e-05
5 *989:4 5.46285e-05
6 imagem_out[2] imagem_out[7] 1.41679e-06
7 imagem_out[3] imagem_out[7] 2.49926e-05
8 imagem_out[4] imagem_out[7] 2.49926e-05
9 imagem_out[6] imagem_out[7] 3.73073e-06
10 *982:6 *989:6 3.47025e-05
11 *988:6 *989:6 0
*RES
1 *1954:Y *989:4 17.2 
2 *989:4 *989:6 42.2512 
3 *989:6 *989:12 35.057 
4 *989:12 imagem_out[7] 18.2349 
*END

*D_NET *990 0.000466927
*CONN
*P imagem_out[8] O
*I *1955:Y O *D BUFx3_ASAP7_75t_R
*CAP
1 imagem_out[8] 2.00193e-06
2 *1955:Y 1.32448e-05
3 *990:24 7.20315e-05
4 *990:18 8.98928e-05
5 *990:8 3.3108e-05
6 imagem_out[8] imagem_out[9] 2.64633e-06
7 *990:18 *991:18 6.57273e-06
8 *990:24 *991:26 0.000247428
9 *569:14 *990:8 0
*RES
1 *1955:Y *990:8 42.7536 
2 *990:8 *990:18 47.5129 
3 *990:18 *990:24 38.2949 
4 *990:24 imagem_out[8] 12.8822 
*END

*D_NET *991 0.000427988
*CONN
*P imagem_out[9] O
*I *1956:Y O *D BUFx3_ASAP7_75t_R
*CAP
1 imagem_out[9] 3.94063e-06
2 *1956:Y 5.00494e-06
3 *991:26 6.93016e-05
4 *991:18 7.67246e-05
5 *991:8 1.63686e-05
6 imagem_out[8] imagem_out[9] 2.64633e-06
7 *569:14 *991:8 0
8 *990:18 *991:18 6.57273e-06
9 *990:24 *991:26 0.000247428
*RES
1 *1956:Y *991:8 37.3097 
2 *991:8 *991:18 45.1736 
3 *991:18 *991:26 49.5622 
4 *991:26 imagem_out[9] 1.94794 
*END

*D_NET *678 5.85022e-05
*CONN
*I *2042:A I *D BUFx3_ASAP7_75t_R
*I *1120:A I *D INVx1_ASAP7_75t_R
*I *1533:Y O *D BUFx2_ASAP7_75t_R
*CAP
1 *2042:A 1.03657e-05
2 *1120:A 0
3 *1533:Y 1.03831e-05
4 *678:10 2.07488e-05
5 *2042:A *794:36 5.09995e-06
6 *678:10 *794:36 9.81516e-06
7 *83:6 *2042:A 2.0895e-06
*RES
1 *1533:Y *678:10 40.4531 
2 *678:10 *1120:A 34.4 
3 *678:10 *2042:A 40.9029 
*END

*D_NET *687 0.000335164
*CONN
*I *1498:A1 I *D AO21x2_ASAP7_75t_R
*I *1663:B I *D HAxp5_ASAP7_75t_R
*I *1806:Y O *D BUFx2_ASAP7_75t_R
*CAP
1 *1498:A1 4.99467e-06
2 *1663:B 0
3 *1806:Y 1.40599e-06
4 *687:37 4.09212e-05
5 *687:26 1.81971e-06
6 *687:20 6.45e-05
7 *687:12 0.000125943
8 *687:8 2.87422e-05
9 *687:8 *844:25 1.23321e-06
10 *687:12 *842:27 1.28946e-06
11 *687:12 *844:25 4.46143e-06
12 *687:37 *688:23 0
13 *687:37 *690:10 0
14 *687:37 *840:23 1.22076e-06
15 *687:37 *1051:14 2.70043e-05
16 *1498:A2 *687:37 3.3563e-06
17 *322:27 *1498:A1 5.51397e-07
18 *459:38 *687:37 1.67815e-06
19 *459:62 *687:37 5.49212e-07
20 *586:8 *687:37 4.42421e-06
21 *684:12 *687:12 0
22 *684:12 *687:37 0
23 *685:20 *687:12 2.10683e-05
*RES
1 *1806:Y *687:8 35.4325 
2 *687:8 *687:12 27.6431 
3 *687:12 *687:20 44.0128 
4 *687:20 *687:26 35.6202 
5 *687:26 *1663:B 17.2 
6 *687:12 *687:37 40.312 
7 *687:37 *1498:A1 37.0741 
*END

*D_NET *777 0.000175425
*CONN
*I *1650:B I *D HAxp5_ASAP7_75t_R
*I *1363:A I *D AND2x2_ASAP7_75t_R
*I *1896:Y O *D BUFx2_ASAP7_75t_R
*CAP
1 *1650:B 0
2 *1363:A 0
3 *1896:Y 2.47679e-05
4 *777:16 3.19278e-05
5 *777:10 5.66957e-05
6 *777:10 *922:13 0
7 *777:10 *931:31 3.15149e-06
8 *777:10 *932:31 0
9 *777:16 *1355:A 0
10 *777:16 *778:10 0
11 *117:8 *777:16 3.38819e-06
12 *118:21 *777:16 3.20927e-06
13 *194:25 *777:16 2.99682e-05
14 *403:14 *777:10 6.89653e-06
15 *768:10 *777:10 5.13209e-07
16 *768:10 *777:16 2.22736e-06
17 *768:16 *777:16 1.26791e-05
*RES
1 *1896:Y *777:10 49.3504 
2 *777:10 *777:16 46.428 
3 *777:16 *1363:A 17.2 
4 *777:10 *1650:B 34.4 
*END

*D_NET *778 0.000162964
*CONN
*I *1676:B I *D HAxp5_ASAP7_75t_R
*I *1355:A I *D AND2x2_ASAP7_75t_R
*I *1897:Y O *D BUFx2_ASAP7_75t_R
*CAP
1 *1676:B 1.85718e-06
2 *1355:A 1.43055e-05
3 *1897:Y 1.32307e-05
4 *778:10 4.95625e-05
5 *778:8 4.66306e-05
6 *1355:A *1023:44 6.02591e-06
7 *118:21 *778:10 0
8 *148:18 *778:10 2.1664e-06
9 *192:8 *778:10 3.95845e-06
10 *193:8 *1676:B 2.28976e-06
11 *193:12 *778:10 6.55105e-06
12 *194:10 *1676:B 8.87763e-06
13 *194:25 *778:10 0
14 *403:14 *778:8 5.61049e-06
15 *769:23 *1355:A 1.09067e-06
16 *769:23 *778:10 8.06799e-07
17 *777:16 *1355:A 0
18 *777:16 *778:10 0
*RES
1 *1897:Y *778:8 40.2831 
2 *778:8 *778:10 24.7793 
3 *778:10 *1355:A 44.3103 
4 *778:10 *1676:B 37.0741 
*END

*D_NET *779 0.00013053
*CONN
*I *1340:A I *D AND2x2_ASAP7_75t_R
*I *1654:B I *D HAxp5_ASAP7_75t_R
*I *1898:Y O *D BUFx2_ASAP7_75t_R
*CAP
1 *1340:A 3.31812e-05
2 *1654:B 0
3 *1898:Y 0
4 *779:23 3.96747e-05
5 *779:12 2.44799e-05
6 *779:4 3.09735e-05
7 *779:23 *933:27 5.49212e-07
8 *1340:B *1340:A 2.52755e-07
9 *770:18 *779:23 1.4191e-06
*RES
1 *1898:Y *779:4 17.2 
2 *779:4 *779:12 48.9573 
3 *779:12 *1654:B 17.2 
4 *779:4 *779:23 39.4685 
5 *779:23 *1340:A 33.2448 
*END

*D_NET *780 0.000195178
*CONN
*I *1652:B I *D HAxp5_ASAP7_75t_R
*I *1303:A I *D AND2x2_ASAP7_75t_R
*I *1899:Y O *D BUFx2_ASAP7_75t_R
*CAP
1 *1652:B 0
2 *1303:A 1.11882e-05
3 *1899:Y 1.40769e-05
4 *780:23 2.9862e-05
5 *780:8 5.51272e-05
6 *1231:A *780:23 9.41645e-07
7 *122:10 *780:23 9.78662e-06
8 *130:8 *780:23 9.38684e-06
9 *130:14 *1303:A 2.66797e-07
10 *416:16 *1303:A 5.17782e-06
11 *771:8 *780:8 3.70883e-05
12 *771:8 *780:23 2.22761e-05
*RES
1 *1899:Y *780:8 47.3528 
2 *780:8 *1303:A 40.8179 
3 *780:8 *780:23 40.5979 
4 *780:23 *1652:B 17.2 
*END

*D_NET *781 0.000260449
*CONN
*I *1670:B I *D HAxp5_ASAP7_75t_R
*I *1325:A I *D AND2x2_ASAP7_75t_R
*I *1900:Y O *D BUFx2_ASAP7_75t_R
*CAP
1 *1670:B 0
2 *1325:A 0
3 *1900:Y 1.16085e-05
4 *781:59 6.51375e-06
5 *781:49 7.68787e-05
6 *781:39 8.0137e-05
7 *781:22 4.65388e-06
8 *781:14 3.4552e-05
9 *781:10 3.17346e-05
10 *781:14 *934:23 4.56478e-06
11 *171:8 *781:59 0
12 *173:12 *781:59 7.82377e-07
13 *465:8 *781:22 3.05118e-08
14 *770:12 *781:10 3.85895e-06
15 *770:18 *781:10 2.84411e-06
16 *770:31 *781:10 2.27522e-06
17 *771:8 *781:22 1.49407e-08
*RES
1 *1900:Y *781:10 39.1762 
2 *781:10 *781:14 23.4767 
3 *781:14 *781:22 36.6898 
4 *781:22 *1325:A 17.2 
5 *781:14 *781:39 34.3822 
6 *781:39 *781:49 40.3164 
7 *781:49 *781:59 49.3869 
8 *781:59 *1670:B 17.2 
*END

*D_NET *782 0.000103992
*CONN
*I *1714:B I *D HAxp5_ASAP7_75t_R
*I *1270:A I *D AND2x2_ASAP7_75t_R
*I *1901:Y O *D BUFx2_ASAP7_75t_R
*CAP
1 *1714:B 1.70345e-05
2 *1270:A 1.55942e-05
3 *1901:Y 1.36296e-05
4 *782:8 4.62583e-05
5 *1270:A *1270:B 5.34278e-06
6 *1270:A *1023:12 0
7 *171:8 *1714:B 0
8 *318:8 *1714:B 6.13287e-06
9 *773:10 *1270:A 0
10 *773:10 *1714:B 0
*RES
1 *1901:Y *782:8 40.2831 
2 *782:8 *1270:A 45.773 
3 *782:8 *1714:B 47.3528 
*END

*D_NET *783 0.000303091
*CONN
*I *1336:A I *D INVx1_ASAP7_75t_R
*I *1902:Y O *D BUFx2_ASAP7_75t_R
*CAP
1 *1336:A 1.25872e-05
2 *1902:Y 7.40875e-05
3 *783:18 4.57917e-05
4 *783:12 3.82777e-05
5 *783:6 7.91607e-05
6 *783:12 *1018:20 2.61304e-06
7 *783:12 *1018:26 3.88042e-07
8 *783:12 *1069:8 3.40177e-06
9 *783:18 *1420:A 8.87763e-06
10 *1329:A *783:18 6.6195e-06
11 *140:6 *783:18 4.75943e-06
12 *140:12 *783:18 2.11853e-06
13 *273:8 *1336:A 5.34278e-06
14 *710:10 *783:6 3.68565e-06
15 *710:22 *783:18 1.08167e-05
16 *710:28 *1336:A 2.61188e-06
17 *710:28 *783:18 1.95129e-06
18 *761:10 *783:6 0
*RES
1 *1902:Y *783:6 44.4761 
2 *783:6 *783:12 38.3422 
3 *783:12 *783:18 40.874 
4 *783:18 *1336:A 41.3527 
*END

*D_NET *784 0.000142034
*CONN
*I *1189:A I *D INVx1_ASAP7_75t_R
*I *2041:A I *D BUFx3_ASAP7_75t_R
*I *1903:Y O *D BUFx2_ASAP7_75t_R
*CAP
1 *1189:A 0
2 *2041:A 1.25057e-05
3 *1903:Y 2.35265e-06
4 *784:16 1.5059e-05
5 *784:12 4.49833e-05
6 *784:8 4.47827e-05
7 *2041:A *1911:A 7.16615e-06
8 *2041:A *792:16 0
9 *784:16 *1911:A 6.52642e-06
10 *784:16 *792:16 0
11 *695:8 *784:8 0
12 *704:8 *784:8 8.65771e-06
*RES
1 *1903:Y *784:8 37.2158 
2 *784:8 *784:12 39.1278 
3 *784:12 *784:16 20.0158 
4 *784:16 *2041:A 42.6491 
5 *784:16 *1189:A 34.4 
*END

*D_NET *785 0.00022369
*CONN
*I *1165:A I *D INVx1_ASAP7_75t_R
*I *1140:A I *D AND2x2_ASAP7_75t_R
*I *1904:Y O *D BUFx2_ASAP7_75t_R
*CAP
1 *1165:A 6.89329e-06
2 *1140:A 5.06483e-06
3 *1904:Y 2.32807e-05
4 *785:14 3.8777e-05
5 *785:10 6.38861e-05
6 *1140:A *1140:B 2.20493e-06
7 *1140:A *1025:52 7.58265e-07
8 *785:10 *793:8 5.21252e-07
9 *785:14 *1138:A 3.17306e-06
10 *785:14 *1140:B 1.51713e-05
11 *785:14 *1312:B 4.23589e-06
12 *785:14 *793:8 2.67204e-06
13 *785:14 *795:8 0
14 *785:14 *1025:52 4.04904e-06
15 *1268:B *785:14 0
16 *5:8 *785:14 1.34828e-05
17 *35:6 *1165:A 4.33571e-06
18 *70:8 *785:14 3.51838e-05
*RES
1 *1904:Y *785:10 45.9714 
2 *785:10 *785:14 49.3005 
3 *785:14 *1140:A 20.409 
4 *785:10 *1165:A 38.6786 
*END

*D_NET *786 0.000287905
*CONN
*I *1262:A I *D INVx1_ASAP7_75t_R
*I *1312:A I *D AND2x2_ASAP7_75t_R
*I *1905:Y O *D BUFx2_ASAP7_75t_R
*CAP
1 *1262:A 0
2 *1312:A 0
3 *1905:Y 1.22521e-05
4 *786:39 3.74714e-05
5 *786:26 1.2004e-06
6 *786:20 3.71908e-05
7 *786:12 0.000109034
8 *786:8 4.78243e-05
9 *786:8 *792:10 0
10 *786:8 *792:16 0
11 *786:12 *796:39 2.48022e-05
12 *786:20 *787:39 3.77503e-06
13 *786:20 *949:25 0
14 *786:39 *787:39 0
15 *786:39 *796:39 5.61736e-06
16 *272:27 *786:39 2.0915e-06
17 *341:16 *786:20 6.64582e-06
18 *344:18 *786:12 0
*RES
1 *1905:Y *786:8 42.3782 
2 *786:8 *786:12 33.0541 
3 *786:12 *786:20 39.238 
4 *786:20 *786:26 35.057 
5 *786:26 *1312:A 17.2 
6 *786:12 *786:39 47.6292 
7 *786:39 *1262:A 17.2 
*END

*D_NET *688 0.000167748
*CONN
*I *1494:A2 I *D AO21x2_ASAP7_75t_R
*I *1664:B I *D HAxp5_ASAP7_75t_R
*I *1807:Y O *D BUFx2_ASAP7_75t_R
*CAP
1 *1494:A2 0
2 *1664:B 0
3 *1807:Y 0
4 *688:23 3.66509e-05
5 *688:12 2.695e-05
6 *688:6 6.36009e-05
7 *688:12 *804:20 5.19498e-06
8 *688:12 *1045:8 0
9 *688:23 *690:10 0
10 *688:23 *804:20 7.84037e-07
11 *688:23 *1114:12 0
12 *1664:A *688:12 9.08966e-06
13 *137:18 *688:12 1.54163e-06
14 *153:17 *688:12 4.00967e-06
15 *156:23 *688:12 1.13093e-05
16 *156:23 *688:23 4.16194e-06
17 *322:12 *688:23 0
18 *459:72 *688:23 4.45472e-06
19 *586:8 *688:23 0
20 *587:10 *688:23 0
21 *687:37 *688:23 0
*RES
1 *1807:Y *688:6 34.4 
2 *688:6 *688:12 40.7679 
3 *688:12 *1664:B 17.2 
4 *688:6 *688:23 43.049 
5 *688:23 *1494:A2 17.2 
*END

*D_NET *787 0.000444672
*CONN
*I *1220:A I *D INVx1_ASAP7_75t_R
*I *1180:A I *D AND2x2_ASAP7_75t_R
*I *1906:Y O *D BUFx2_ASAP7_75t_R
*CAP
1 *1220:A 0
2 *1180:A 0
3 *1906:Y 7.2836e-06
4 *787:45 1.04169e-06
5 *787:39 5.50991e-05
6 *787:29 6.23268e-05
7 *787:14 3.84918e-05
8 *787:8 5.40447e-05
9 *787:8 *1911:A 0
10 *787:14 *1180:B 3.68287e-06
11 *787:14 *1024:23 9.9223e-06
12 *787:29 *796:20 0
13 *787:39 *946:17 2.05557e-06
14 *787:39 *949:25 2.89123e-05
15 *338:14 *787:45 3.08218e-06
16 *340:10 *787:45 0
17 *341:16 *787:39 5.73491e-07
18 *341:24 *787:39 1.72409e-05
19 *341:32 *787:14 0
20 *344:28 *787:29 0
21 *344:28 *787:39 0.00014665
22 *344:34 *787:14 0
23 *345:27 *787:14 0
24 *345:38 *787:14 0
25 *351:22 *787:14 1.12894e-06
26 *351:35 *787:14 6.67018e-06
27 *354:10 *787:14 0
28 *354:20 *787:14 0
29 *695:8 *787:8 2.51625e-06
30 *695:20 *787:29 1.74006e-07
31 *786:20 *787:39 3.77503e-06
32 *786:39 *787:39 0
*RES
1 *1906:Y *787:8 39.9378 
2 *787:8 *787:14 46.5748 
3 *787:14 *1180:A 17.2 
4 *787:8 *787:29 43.7941 
5 *787:29 *787:39 46.8691 
6 *787:39 *787:45 35.4325 
7 *787:45 *1220:A 17.2 
*END

*D_NET *788 0.000114072
*CONN
*I *1186:A I *D INVx1_ASAP7_75t_R
*I *1168:A I *D AND2x2_ASAP7_75t_R
*I *1907:Y O *D BUFx2_ASAP7_75t_R
*CAP
1 *1186:A 3.73918e-06
2 *1168:A 0
3 *1907:Y 0
4 *788:14 2.48598e-05
5 *788:8 4.84238e-05
6 *788:6 1.98248e-05
7 *788:8 *789:8 8.2174e-07
8 *788:8 *789:14 1.6136e-06
9 *788:8 *798:18 7.20078e-06
10 *788:14 *798:18 4.3637e-06
11 *788:14 *968:8 3.36331e-07
12 *1168:B *788:14 2.88806e-06
*RES
1 *1907:Y *788:6 34.4 
2 *788:6 *788:8 17.4581 
3 *788:8 *788:14 33.6415 
4 *788:14 *1168:A 17.2 
5 *788:8 *1186:A 36.0045 
*END

*D_NET *789 0.000174913
*CONN
*I *1183:A I *D INVx1_ASAP7_75t_R
*I *1264:A I *D AND2x2_ASAP7_75t_R
*I *1908:Y O *D BUFx2_ASAP7_75t_R
*CAP
1 *1183:A 2.08472e-05
2 *1264:A 0
3 *1908:Y 1.33267e-05
4 *789:14 2.11423e-05
5 *789:8 5.53162e-05
6 *1183:A *1624:B 5.90588e-07
7 *1183:A *798:14 5.59125e-06
8 *789:8 *798:8 0
9 *789:8 *952:13 1.29846e-05
10 *789:14 *798:8 0
11 *789:14 *798:18 2.69892e-05
12 *438:8 *789:14 7.35612e-06
13 *438:10 *789:14 8.33296e-06
14 *788:8 *789:8 8.2174e-07
15 *788:8 *789:14 1.6136e-06
*RES
1 *1908:Y *789:8 46.2265 
2 *789:8 *789:14 35.4727 
3 *789:14 *1264:A 17.2 
4 *789:8 *1183:A 42.4224 
*END

*D_NET *790 0.00014337
*CONN
*I *1187:A I *D INVx1_ASAP7_75t_R
*I *1550:A I *D AND2x2_ASAP7_75t_R
*I *1909:Y O *D BUFx2_ASAP7_75t_R
*CAP
1 *1187:A 0
2 *1550:A 0
3 *1909:Y 1.44909e-05
4 *790:12 1.18544e-05
5 *790:8 2.63453e-05
6 *790:8 *799:16 2.32646e-05
7 *790:12 *799:16 3.58449e-05
8 *790:12 *799:22 1.692e-05
9 *41:10 *790:8 2.79108e-06
10 *41:10 *790:12 7.75e-06
11 *42:8 *790:12 4.10928e-06
*RES
1 *1909:Y *790:8 47.3528 
2 *790:8 *790:12 34.6581 
3 *790:12 *1550:A 17.2 
4 *790:8 *1187:A 34.4 
*END

*D_NET *791 0.000189858
*CONN
*I *1586:A I *D INVx1_ASAP7_75t_R
*I *1300:A I *D AND2x2_ASAP7_75t_R
*I *1910:Y O *D BUFx2_ASAP7_75t_R
*CAP
1 *1586:A 0
2 *1300:A 0
3 *1910:Y 6.49573e-06
4 *791:16 2.30927e-05
5 *791:10 4.12924e-05
6 *791:8 2.46954e-05
7 *791:10 *800:10 1.54939e-05
8 *791:10 *800:16 1.40001e-05
9 *791:16 *1299:B 1.09069e-05
10 *791:16 *1300:B 5.34278e-06
11 *791:16 *800:16 1.14669e-05
12 *267:8 *791:10 3.29527e-06
13 *267:8 *791:16 5.49212e-07
14 *269:14 *791:10 7.24542e-06
15 *269:33 *791:8 6.7842e-07
16 *269:33 *791:10 1.30867e-05
17 *348:10 *791:8 5.19552e-07
18 *349:10 *791:10 1.16966e-05
*RES
1 *1910:Y *791:8 37.0741 
2 *791:8 *791:10 23.653 
3 *791:10 *791:16 35.7241 
4 *791:16 *1300:A 17.2 
5 *791:10 *1586:A 34.4 
*END

*D_NET *792 8.89827e-05
*CONN
*I *1619:B I *D HAxp5_ASAP7_75t_R
*I *2040:A I *D BUFx3_ASAP7_75t_R
*I *1911:Y O *D BUFx2_ASAP7_75t_R
*CAP
1 *1619:B 0
2 *2040:A 0
3 *1911:Y 1.61309e-05
4 *792:16 2.56532e-05
5 *792:10 4.17841e-05
6 *792:10 *1911:A 0
7 *792:16 *1076:12 0
8 *2041:A *792:16 0
9 *439:8 *792:16 5.41446e-06
10 *784:16 *792:16 0
11 *786:8 *792:10 0
12 *786:8 *792:16 0
*RES
1 *1911:Y *792:10 42.6491 
2 *792:10 *792:16 36.2626 
3 *792:16 *2040:A 17.2 
4 *792:10 *1619:B 34.4 
*END

*D_NET *793 0.000109241
*CONN
*I *1631:B I *D HAxp5_ASAP7_75t_R
*I *1138:A I *D AND2x2_ASAP7_75t_R
*I *1912:Y O *D BUFx2_ASAP7_75t_R
*CAP
1 *1631:B 6.73759e-06
2 *1138:A 8.87087e-06
3 *1912:Y 0
4 *793:8 4.88042e-05
5 *793:6 3.31958e-05
6 *1138:A *795:8 0
7 *793:8 *795:8 0
8 *793:8 *949:31 6.36702e-07
9 *1123:A2 *793:8 0
10 *1631:A *1631:B 6.7842e-07
11 *5:8 *793:8 3.24127e-06
12 *72:10 *793:8 0
13 *344:8 *793:8 7.0931e-07
14 *785:10 *793:8 5.21252e-07
15 *785:14 *1138:A 3.17306e-06
16 *785:14 *793:8 2.67204e-06
*RES
1 *1912:Y *793:6 34.4 
2 *793:6 *793:8 22.5266 
3 *793:8 *1138:A 42.2843 
4 *793:8 *1631:B 38.1438 
*END

*D_NET *794 0.000284969
*CONN
*I *1118:A I *D INVx1_ASAP7_75t_R
*I *1636:B I *D HAxp5_ASAP7_75t_R
*I *1331:A I *D AND2x2_ASAP7_75t_R
*I *1913:Y O *D BUFx2_ASAP7_75t_R
*CAP
1 *1118:A 0
2 *1636:B 0
3 *1331:A 0
4 *1913:Y 2.00261e-05
5 *794:36 2.49531e-05
6 *794:23 1.87792e-05
7 *794:12 5.38401e-05
8 *794:8 8.00401e-05
9 *794:12 *1331:B 5.17782e-06
10 *794:23 *1331:B 2.09348e-05
11 *794:23 *1019:28 2.76426e-05
12 *794:36 *1077:8 0
13 *1333:A *794:23 2.12481e-06
14 *1431:B *794:23 8.33296e-06
15 *2042:A *794:36 5.09995e-06
16 *84:10 *794:23 0
17 *476:8 *794:23 8.20229e-06
18 *614:31 *794:8 0
19 *678:10 *794:36 9.81516e-06
*RES
1 *1913:Y *794:8 49.6055 
2 *794:8 *794:12 38.593 
3 *794:12 *1331:A 17.2 
4 *794:12 *794:23 38.8234 
5 *794:23 *1636:B 34.4 
6 *794:8 *794:36 33.9533 
7 *794:36 *1118:A 17.2 
*END

*D_NET *795 0.000219464
*CONN
*I *1707:B I *D HAxp5_ASAP7_75t_R
*I *1311:A I *D AND2x2_ASAP7_75t_R
*I *1914:Y O *D BUFx2_ASAP7_75t_R
*CAP
1 *1707:B 1.54071e-05
2 *1311:A 4.11574e-06
3 *1914:Y 0
4 *795:8 4.51249e-05
5 *795:6 5.64163e-05
6 *1707:B *949:31 9.66144e-08
7 *795:8 *1140:B 0
8 *795:8 *1312:B 0
9 *1123:A2 *795:8 1.29793e-05
10 *1138:A *795:8 0
11 *35:12 *795:8 2.05484e-06
12 *71:10 *795:8 5.54893e-05
13 *72:10 *795:8 2.66891e-05
14 *295:14 *795:8 0
15 *353:8 *795:8 1.09067e-06
16 *469:14 *795:8 0
17 *785:14 *795:8 0
18 *793:8 *795:8 0
*RES
1 *1914:Y *795:6 34.4 
2 *795:6 *795:8 38.2953 
3 *795:8 *1311:A 36.5393 
4 *795:6 *1707:B 43.0422 
*END

*D_NET *796 0.000328936
*CONN
*I *1699:B I *D HAxp5_ASAP7_75t_R
*I *1179:A I *D AND2x2_ASAP7_75t_R
*I *1915:Y O *D BUFx2_ASAP7_75t_R
*CAP
1 *1699:B 0
2 *1179:A 0
3 *1915:Y 7.41943e-07
4 *796:39 7.19675e-05
5 *796:28 3.49718e-06
6 *796:20 6.04197e-05
7 *796:12 0.000138502
8 *796:8 1.0354e-05
9 *796:8 *1911:A 1.84268e-06
10 *796:12 *946:27 4.86221e-07
11 *796:20 *1025:29 1.05112e-06
12 *796:39 *949:25 2.47149e-06
13 *35:12 *796:39 0
14 *295:14 *796:39 4.56767e-06
15 *382:8 *796:28 2.61531e-06
16 *786:12 *796:39 2.48022e-05
17 *786:39 *796:39 5.61736e-06
18 *787:29 *796:20 0
*RES
1 *1915:Y *796:8 35.057 
2 *796:8 *796:12 20.5007 
3 *796:12 *796:20 45.728 
4 *796:20 *796:28 36.3144 
5 *796:28 *1179:A 17.2 
6 *796:12 *796:39 44.9305 
7 *796:39 *1699:B 34.4 
*END

*D_NET *689 0.000311369
*CONN
*I *1671:B I *D HAxp5_ASAP7_75t_R
*I *2039:A I *D BUFx3_ASAP7_75t_R
*I *1808:Y O *D BUFx2_ASAP7_75t_R
*CAP
1 *1671:B 7.51765e-06
2 *2039:A 1.15365e-05
3 *1808:Y 7.09096e-06
4 *689:14 1.90541e-05
5 *689:12 3.66355e-05
6 *689:10 3.66355e-05
7 *689:8 7.09096e-06
8 *1671:B *1019:8 0
9 *689:12 *1322:A 2.03526e-06
10 *689:12 *728:12 3.33273e-05
11 *689:12 *1019:83 5.62196e-06
12 *689:12 *1019:94 2.61935e-05
13 *689:12 *1074:10 5.0551e-07
14 *84:10 *1671:B 0
15 *84:10 *2039:A 0
16 *174:8 *689:8 0
17 *174:12 *689:12 9.8885e-05
18 *174:20 *1671:B 1.12894e-06
19 *174:20 *2039:A 4.57952e-06
20 *174:20 *689:12 1.2768e-05
21 *176:10 *1671:B 0
22 *429:8 *2039:A 7.63254e-07
23 *429:14 *1671:B 0
*RES
1 *1808:Y *689:8 38.9053 
2 *689:8 *689:10 17.2 
3 *689:10 *689:12 41.1815 
4 *689:12 *689:14 17.2 
5 *689:14 *2039:A 43.0422 
6 *689:14 *1671:B 40.0317 
*END

*D_NET *797 0.000115882
*CONN
*I *1622:B I *D HAxp5_ASAP7_75t_R
*I *1167:A I *D AND2x2_ASAP7_75t_R
*I *1916:Y O *D BUFx2_ASAP7_75t_R
*CAP
1 *1622:B 0
2 *1167:A 1.6915e-05
3 *1916:Y 9.8684e-06
4 *797:10 4.41046e-05
5 *797:8 3.70579e-05
6 *797:10 *850:31 5.06819e-06
7 *41:10 *1167:A 0
8 *41:10 *797:10 0
9 *42:8 *1167:A 0
10 *48:12 *797:10 0
11 *696:8 *797:10 2.86811e-06
*RES
1 *1916:Y *797:8 38.1438 
2 *797:8 *797:10 21.4003 
3 *797:10 *1167:A 46.6196 
4 *797:10 *1622:B 34.4 
*END

*D_NET *798 0.000244193
*CONN
*I *1624:B I *D HAxp5_ASAP7_75t_R
*I *1263:A I *D AND2x2_ASAP7_75t_R
*I *1917:Y O *D BUFx2_ASAP7_75t_R
*CAP
1 *1624:B 1.62573e-05
2 *1263:A 1.56385e-05
3 *1917:Y 1.05594e-05
4 *798:18 3.91249e-05
5 *798:14 3.81379e-05
6 *798:10 3.09088e-05
7 *798:8 1.05594e-05
8 *798:18 *814:12 0
9 *798:18 *968:8 0
10 *1183:A *1624:B 5.90588e-07
11 *1183:A *798:14 5.59125e-06
12 *1624:A *1624:B 7.96396e-06
13 *437:8 *1263:A 6.84356e-06
14 *438:10 *798:18 2.34636e-05
15 *788:8 *798:18 7.20078e-06
16 *788:14 *798:18 4.3637e-06
17 *789:8 *798:8 0
18 *789:14 *798:8 0
19 *789:14 *798:18 2.69892e-05
*RES
1 *1917:Y *798:8 41.158 
2 *798:8 *798:10 17.2 
3 *798:10 *798:14 25.2224 
4 *798:14 *798:18 44.232 
5 *798:18 *1263:A 25.7572 
6 *798:10 *1624:B 27.8965 
*END

*D_NET *799 0.000226646
*CONN
*I *1621:B I *D HAxp5_ASAP7_75t_R
*I *1549:A I *D AND2x2_ASAP7_75t_R
*I *1918:Y O *D BUFx2_ASAP7_75t_R
*CAP
1 *1621:B 5.05126e-06
2 *1549:A 0
3 *1918:Y 8.39699e-06
4 *799:22 2.52517e-05
5 *799:16 4.8291e-05
6 *799:14 3.45891e-05
7 *799:8 2.4998e-05
8 *1127:D *799:16 0
9 *1132:A2 *799:16 0
10 *1132:B *799:16 0
11 *1169:A *799:22 0
12 *37:10 *799:16 1.12894e-06
13 *346:8 *799:14 6.7842e-07
14 *352:38 *799:22 0
15 *354:51 *799:22 1.65732e-06
16 *375:8 *799:22 0
17 *630:8 *799:22 5.74232e-07
18 *706:8 *799:16 0
19 *790:8 *799:16 2.32646e-05
20 *790:12 *799:16 3.58449e-05
21 *790:12 *799:22 1.692e-05
*RES
1 *1918:Y *799:8 40.0317 
2 *799:8 *799:14 42.4224 
3 *799:14 *799:16 19.7108 
4 *799:16 *799:22 34.4881 
5 *799:22 *1549:A 17.2 
6 *799:16 *1621:B 37.0741 
*END

*D_NET *800 0.000217811
*CONN
*I *1698:B I *D HAxp5_ASAP7_75t_R
*I *1299:A I *D AND2x2_ASAP7_75t_R
*I *1919:Y O *D BUFx2_ASAP7_75t_R
*CAP
1 *1698:B 3.67561e-06
2 *1299:A 0
3 *1919:Y 1.04805e-05
4 *800:16 2.56519e-05
5 *800:10 4.9401e-05
6 *800:8 3.0554e-05
7 *800:16 *1299:B 1.11529e-05
8 *1136:A1 *800:10 1.12894e-06
9 *38:14 *800:10 0
10 *42:18 *800:16 0
11 *269:33 *800:10 4.9137e-07
12 *342:6 *1698:B 9.30483e-06
13 *348:10 *800:8 3.13935e-05
14 *348:10 *800:10 0
15 *697:8 *800:10 1.55647e-06
16 *707:8 *800:16 2.0588e-06
17 *791:10 *800:10 1.54939e-05
18 *791:10 *800:16 1.40001e-05
19 *791:16 *800:16 1.14669e-05
*RES
1 *1919:Y *800:8 42.4224 
2 *800:8 *800:10 16.3318 
3 *800:10 *800:16 41.1894 
4 *800:16 *1299:A 17.2 
5 *800:10 *1698:B 37.0741 
*END

*D_NET *801 0.000319656
*CONN
*I *1295:A I *D INVx1_ASAP7_75t_R
*I *2038:A I *D BUFx3_ASAP7_75t_R
*I *1920:Y O *D BUFx2_ASAP7_75t_R
*CAP
1 *1295:A 8.24977e-07
2 *2038:A 1.27385e-05
3 *1920:Y 1.18706e-06
4 *801:30 1.35635e-05
5 *801:28 0.000118213
6 *801:18 0.000137615
7 *801:8 2.05886e-05
8 *801:18 *845:27 2.55746e-06
9 *801:28 *1020:20 3.72433e-07
10 *801:28 *1061:12 1.1445e-06
11 *2026:A *1295:A 0
12 *2026:A *2038:A 0
13 *461:27 *801:18 4.13034e-06
14 *683:12 *801:18 6.72062e-06
*RES
1 *1920:Y *801:8 35.057 
2 *801:8 *801:18 49.5461 
3 *801:18 *801:28 49.8895 
4 *801:28 *801:30 17.2 
5 *801:30 *2038:A 41.8787 
6 *801:30 *1295:A 35.057 
*END

*D_NET *802 0.000287663
*CONN
*I *1308:A I *D INVx1_ASAP7_75t_R
*I *1921:Y O *D BUFx2_ASAP7_75t_R
*CAP
1 *1308:A 3.03477e-05
2 *1921:Y 8.92012e-06
3 *802:20 3.22452e-05
4 *802:14 8.83166e-05
5 *802:10 9.53392e-05
6 *1292:B *1308:A 2.48227e-05
7 *448:12 *1308:A 4.38714e-06
8 *458:10 *802:20 3.2842e-06
9 *684:12 *802:14 0
*RES
1 *1921:Y *802:10 38.2943 
2 *802:10 *802:14 42.3068 
3 *802:14 *802:20 35.6202 
4 *802:20 *1308:A 31.6403 
*END

*D_NET *803 0.0001926
*CONN
*I *1505:A I *D INVx1_ASAP7_75t_R
*I *1922:Y O *D BUFx2_ASAP7_75t_R
*CAP
1 *1505:A 0
2 *1922:Y 1.61156e-05
3 *803:14 5.83121e-05
4 *803:12 5.83121e-05
5 *803:10 1.61156e-05
6 *803:14 *1111:10 6.49184e-07
7 *1657:A *803:14 2.8275e-06
8 *1657:B *803:10 1.40419e-08
9 *1657:B *803:14 2.35157e-05
10 *2076:A *803:14 4.18905e-06
11 *137:12 *803:10 4.43846e-06
12 *153:17 *803:10 8.11099e-06
*RES
1 *1922:Y *803:10 42.0293 
2 *803:10 *803:12 17.2 
3 *803:12 *803:14 34.7636 
4 *803:14 *1505:A 17.2 
*END

*D_NET *804 0.000240315
*CONN
*I *1352:A I *D INVx1_ASAP7_75t_R
*I *1923:Y O *D BUFx2_ASAP7_75t_R
*CAP
1 *1352:A 5.45834e-05
2 *1923:Y 1.64758e-05
3 *804:20 5.86934e-05
4 *804:14 3.80428e-05
5 *804:10 5.04086e-05
6 *1352:A *1475:B 2.14755e-06
7 *1352:A *1051:8 0
8 *804:10 *1923:A 0
9 *804:20 *1051:14 0
10 *531:27 *804:10 1.00899e-06
11 *570:10 *1352:A 1.29755e-05
12 *688:12 *804:20 5.19498e-06
13 *688:23 *804:20 7.84037e-07
*RES
1 *1923:Y *804:10 42.0293 
2 *804:10 *804:14 35.9189 
3 *804:14 *804:20 38.3422 
4 *804:20 *1352:A 39.1278 
*END

*D_NET *805 0.000829723
*CONN
*I *1623:B I *D HAxp5_ASAP7_75t_R
*I *2069:A I *D BUFx3_ASAP7_75t_R
*I *1924:Y O *D BUFx2_ASAP7_75t_R
*CAP
1 *1623:B 1.46975e-05
2 *2069:A 0
3 *1924:Y 8.36526e-06
4 *805:32 2.09931e-05
5 *805:20 0.000177856
6 *805:18 0.000176033
7 *805:8 1.28376e-05
8 *805:18 *865:21 0
9 *805:20 *866:17 3.15171e-05
10 *805:20 *893:13 0
11 *805:20 *915:17 8.59879e-05
12 *43:6 *1623:B 1.27782e-06
13 *43:10 *1623:B 1.67089e-05
14 *43:10 *805:32 4.15076e-06
15 *700:20 *805:20 0.000279298
*RES
1 *1924:Y *805:8 39.7501 
2 *805:8 *805:18 41.9707 
3 *805:18 *805:20 53.4102 
4 *805:20 *805:32 43.3787 
5 *805:32 *2069:A 34.4 
6 *805:32 *1623:B 44.8451 
*END

*D_NET *806 0.000192095
*CONN
*I *1925:A I *D BUFx3_ASAP7_75t_R
*I *1432:Y O *D OA21x2_ASAP7_75t_R
*CAP
1 *1925:A 0
2 *1432:Y 1.49102e-05
3 *806:22 2.22832e-05
4 *806:14 5.98835e-05
5 *806:8 5.25105e-05
6 *806:14 *1936:A 1.96943e-05
7 *806:22 *1936:A 1.95129e-06
8 *1334:A *806:14 2.28976e-06
9 *1432:A2 *806:14 1.09067e-06
10 *1432:B *806:8 3.81627e-06
11 *227:8 *806:14 8.8135e-06
12 *228:21 *806:14 2.70427e-06
13 *230:10 *806:14 0
14 *539:6 *806:8 2.14755e-06
*RES
1 *1432:Y *806:8 41.3527 
2 *806:8 *806:14 40.2578 
3 *806:14 *806:22 47.3775 
4 *806:22 *1925:A 17.2 
*END

*D_NET *690 0.000206682
*CONN
*I *1657:A I *D HAxp5_ASAP7_75t_R
*I *1476:A1 I *D AO21x2_ASAP7_75t_R
*I *1809:Y O *D BUFx2_ASAP7_75t_R
*CAP
1 *1657:A 3.67253e-06
2 *1476:A1 0
3 *1809:Y 2.58622e-05
4 *690:25 2.09832e-05
5 *690:14 2.79607e-05
6 *690:10 3.65123e-05
7 *1657:A *803:14 2.8275e-06
8 *690:10 *1114:6 1.4252e-05
9 *690:14 *1114:6 1.96943e-05
10 *690:25 *1103:10 1.67336e-06
11 *1476:A2 *690:25 2.03526e-06
12 *459:18 *690:25 9.7398e-06
13 *459:27 *690:25 3.35463e-05
14 *570:10 *690:25 7.92239e-06
15 *687:37 *690:10 0
16 *688:23 *690:10 0
*RES
1 *1809:Y *690:10 48.5038 
2 *690:10 *690:14 24.6875 
3 *690:14 *1476:A1 17.2 
4 *690:14 *690:25 34.4881 
5 *690:25 *1657:A 36.0045 
*END

*D_NET *807 5.10136e-05
*CONN
*I *1926:A I *D BUFx3_ASAP7_75t_R
*I *1467:Y O *D OA21x2_ASAP7_75t_R
*CAP
1 *1926:A 5.01913e-06
2 *1467:Y 1.70848e-05
3 *807:8 2.2104e-05
4 *203:8 *807:8 6.02093e-06
5 *547:18 *807:8 7.84772e-07
6 *556:51 *807:8 0
*RES
1 *1467:Y *807:8 47.3528 
2 *807:8 *1926:A 37.0741 
*END

*D_NET *808 7.18673e-05
*CONN
*I *1927:A I *D BUFx3_ASAP7_75t_R
*I *1463:Y O *D OA21x2_ASAP7_75t_R
*CAP
1 *1927:A 1.67823e-05
2 *1463:Y 1.91514e-05
3 *808:8 3.59337e-05
4 *60:10 *1927:A 0
5 *181:10 *1927:A 0
6 *398:30 *1927:A 0
*RES
1 *1463:Y *808:8 43.492 
2 *808:8 *1927:A 47.3528 
*END

*D_NET *809 5.39255e-05
*CONN
*I *1928:A I *D BUFx3_ASAP7_75t_R
*I *1459:Y O *D OA21x2_ASAP7_75t_R
*CAP
1 *1928:A 1.22462e-05
2 *1459:Y 1.47165e-05
3 *809:10 2.69627e-05
4 *181:10 *809:10 0
*RES
1 *1459:Y *809:10 42.6491 
2 *809:10 *1928:A 41.3527 
*END

*D_NET *810 5.03558e-05
*CONN
*I *1929:A I *D BUFx3_ASAP7_75t_R
*I *1455:Y O *D OA21x2_ASAP7_75t_R
*CAP
1 *1929:A 0
2 *1455:Y 2.51779e-05
3 *810:10 2.51779e-05
4 *181:10 *810:10 0
5 *398:20 *810:10 0
*RES
1 *1455:Y *810:10 46.9277 
2 *810:10 *1929:A 34.4 
*END

*D_NET *811 0.000313274
*CONN
*I *1930:A I *D BUFx3_ASAP7_75t_R
*I *1451:Y O *D OA21x2_ASAP7_75t_R
*CAP
1 *1930:A 0
2 *1451:Y 4.58522e-06
3 *811:40 1.64741e-05
4 *811:32 9.9763e-05
5 *811:20 0.000104654
6 *811:8 2.59503e-05
7 *811:20 *812:20 0
8 *811:32 *812:28 3.90683e-05
9 *811:32 *919:21 0
10 *811:32 *948:13 0
11 *811:32 *965:24 0
12 *811:40 *919:29 1.5707e-06
13 *811:40 *965:16 0
14 *237:18 *811:20 1.1889e-05
15 *237:28 *811:20 0
16 *387:24 *811:20 2.2217e-07
17 *387:34 *811:8 1.68025e-06
18 *398:12 *811:20 4.1427e-06
19 *398:125 *811:20 2.99007e-06
20 *721:24 *811:8 2.83874e-07
*RES
1 *1451:Y *811:8 37.122 
2 *811:8 *811:20 46.6053 
3 *811:20 *811:32 49.8911 
4 *811:32 *811:40 35.8509 
5 *811:40 *1930:A 34.4 
*END

*D_NET *812 0.000295709
*CONN
*I *1931:A I *D BUFx3_ASAP7_75t_R
*I *1602:Y O *D OA21x2_ASAP7_75t_R
*CAP
1 *1931:A 0
2 *1602:Y 3.85074e-06
3 *812:40 8.49138e-06
4 *812:28 8.83906e-05
5 *812:20 9.36933e-05
6 *812:8 1.76448e-05
7 *812:28 *874:13 3.66531e-05
8 *812:28 *875:21 3.08274e-06
9 *812:28 *948:13 0
10 *237:18 *812:20 2.66911e-06
11 *237:28 *812:20 2.16453e-06
12 *398:12 *812:20 0
13 *811:20 *812:20 0
14 *811:32 *812:28 3.90683e-05
*RES
1 *1602:Y *812:8 36.5588 
2 *812:8 *812:20 44.7091 
3 *812:20 *812:28 39.9301 
4 *812:28 *812:40 43.573 
5 *812:40 *1931:A 34.4 
*END

*D_NET *813 7.50173e-05
*CONN
*I *1932:A I *D BUFx3_ASAP7_75t_R
*I *1515:Y O *D OA21x2_ASAP7_75t_R
*CAP
1 *1932:A 0
2 *1515:Y 9.19456e-06
3 *813:12 2.83141e-05
4 *813:8 3.75087e-05
5 *813:12 *814:12 0
6 *813:12 *967:8 0
7 *813:12 *1097:12 0
8 *419:12 *813:12 0
9 *583:141 *813:12 0
*RES
1 *1515:Y *813:8 38.1438 
2 *813:8 *813:12 38.6003 
3 *813:12 *1932:A 17.2 
*END

*D_NET *814 8.9337e-05
*CONN
*I *1933:A I *D BUFx3_ASAP7_75t_R
*I *1513:Y O *D OA21x2_ASAP7_75t_R
*CAP
1 *1933:A 0
2 *1513:Y 2.20458e-05
3 *814:12 2.13854e-05
4 *814:8 4.34312e-05
5 *814:12 *967:8 1.83015e-06
6 *814:12 *968:8 6.44435e-07
7 *798:18 *814:12 0
8 *813:12 *814:12 0
*RES
1 *1513:Y *814:8 47.7706 
2 *814:8 *814:12 34.6581 
3 *814:12 *1933:A 17.2 
*END

*D_NET *815 2.1118e-05
*CONN
*I *1934:A I *D BUFx3_ASAP7_75t_R
*I *1509:Y O *D OA21x2_ASAP7_75t_R
*CAP
1 *1934:A 2.71613e-06
2 *1509:Y 6.78047e-06
3 *815:8 9.4966e-06
4 *1934:A *1021:53 2.12481e-06
5 *442:8 *815:8 0
*RES
1 *1509:Y *815:8 38.9053 
2 *815:8 *1934:A 36.0045 
*END

*D_NET *816 0.000304307
*CONN
*I *1935:A I *D BUFx3_ASAP7_75t_R
*I *1504:Y O *D OA21x2_ASAP7_75t_R
*CAP
1 *1935:A 0
2 *1504:Y 0
3 *816:14 1.31444e-05
4 *816:6 8.69673e-05
5 *816:4 7.38229e-05
6 *816:14 *821:12 1.66828e-05
7 *1500:B *816:14 1.45158e-05
8 *1504:A2 *816:6 1.36155e-06
9 *583:46 *816:6 3.68287e-06
10 *583:48 *816:6 7.552e-05
11 *583:56 *816:6 1.86097e-05
*RES
1 *1504:Y *816:4 17.2 
2 *816:4 *816:6 36.9029 
3 *816:6 *816:14 44.2819 
4 *816:14 *1935:A 17.2 
*END

*D_NET *691 9.93177e-05
*CONN
*I *2068:A I *D BUFx3_ASAP7_75t_R
*I *1712:A I *D HAxp5_ASAP7_75t_R
*I *1810:Y O *D BUFx2_ASAP7_75t_R
*CAP
1 *2068:A 1.70803e-05
2 *1712:A 0
3 *1810:Y 0
4 *691:10 2.35289e-05
5 *691:6 4.06092e-05
6 *1712:B *691:10 1.52565e-05
7 *1985:A *691:10 2.84286e-06
8 *683:8 *691:10 0
*RES
1 *1810:Y *691:6 34.4 
2 *691:6 *691:10 37.474 
3 *691:10 *1712:A 17.2 
4 *691:6 *2068:A 45.1815 
*END

*D_NET *817 9.75971e-05
*CONN
*I *1936:A I *D BUFx3_ASAP7_75t_R
*I *1429:Y O *D AOI21x1_ASAP7_75t_R
*CAP
1 *1936:A 6.50037e-06
2 *1429:Y 1.20707e-05
3 *817:8 1.85711e-05
4 *1432:A2 *817:8 1.16894e-05
5 *228:21 *817:8 2.71199e-05
6 *806:14 *1936:A 1.96943e-05
7 *806:22 *1936:A 1.95129e-06
*RES
1 *1429:Y *817:8 47.3528 
2 *817:8 *1936:A 40.2831 
*END

*D_NET *818 9.96962e-05
*CONN
*I *1937:A I *D BUFx3_ASAP7_75t_R
*I *1500:Y O *D OA21x2_ASAP7_75t_R
*CAP
1 *1937:A 1.35645e-05
2 *1500:Y 2.58656e-05
3 *818:8 3.94301e-05
4 *1937:A *1939:A 6.6313e-06
5 *1937:A *819:12 3.62429e-07
6 *1937:A *972:8 2.35285e-06
7 *1500:A2 *818:8 9.9223e-06
8 *583:58 *818:8 0
9 *583:62 *1937:A 1.56713e-06
10 *583:62 *818:8 0
*RES
1 *1500:Y *818:8 47.7706 
2 *818:8 *1937:A 44.1686 
*END

*D_NET *819 0.000128872
*CONN
*I *1938:A I *D BUFx3_ASAP7_75t_R
*I *1496:Y O *D OA21x2_ASAP7_75t_R
*CAP
1 *1938:A 0
2 *1496:Y 0
3 *819:12 3.03635e-05
4 *819:6 3.03635e-05
5 *819:12 *820:8 2.62104e-05
6 *819:12 *821:12 1.65077e-05
7 *819:12 *972:8 5.4219e-06
8 *1937:A *819:12 3.62429e-07
9 *587:10 *819:12 1.96424e-05
*RES
1 *1496:Y *819:6 34.4 
2 *819:6 *819:12 44.7631 
3 *819:12 *1938:A 17.2 
*END

*D_NET *820 0.000140466
*CONN
*I *1939:A I *D BUFx3_ASAP7_75t_R
*I *1492:Y O *D OA21x2_ASAP7_75t_R
*CAP
1 *1939:A 2.19503e-05
2 *1492:Y 1.58833e-05
3 *820:8 3.78336e-05
4 *1500:B *820:8 0
5 *1937:A *1939:A 6.6313e-06
6 *583:56 *820:8 0
7 *583:62 *1939:A 3.13777e-05
8 *587:10 *820:8 5.79724e-07
9 *819:12 *820:8 2.62104e-05
*RES
1 *1492:Y *820:8 47.3528 
2 *820:8 *1939:A 48.8403 
*END

*D_NET *821 0.000236821
*CONN
*I *1940:A I *D BUFx3_ASAP7_75t_R
*I *1598:Y O *D OA21x2_ASAP7_75t_R
*CAP
1 *1940:A 0
2 *1598:Y 2.60892e-06
3 *821:12 6.9595e-05
4 *821:10 6.9595e-05
5 *821:8 2.60892e-06
6 *821:12 *1598:A2 1.40724e-05
7 *821:12 *970:10 3.3921e-06
8 *1598:B *821:12 1.62434e-05
9 *185:10 *821:8 8.23409e-06
10 *305:14 *821:8 1.32788e-06
11 *583:48 *821:12 6.10603e-06
12 *583:56 *821:12 9.84664e-06
13 *816:14 *821:12 1.66828e-05
14 *819:12 *821:12 1.65077e-05
*RES
1 *1598:Y *821:8 37.2158 
2 *821:8 *821:10 17.2 
3 *821:10 *821:12 48.1343 
4 *821:12 *1940:A 17.2 
*END

*D_NET *822 8.18329e-05
*CONN
*I *1941:A I *D BUFx3_ASAP7_75t_R
*I *1578:Y O *D OA21x2_ASAP7_75t_R
*CAP
1 *1941:A 6.15224e-06
2 *1578:Y 3.47642e-05
3 *822:10 4.09165e-05
*RES
1 *1578:Y *822:10 49.067 
2 *822:10 *1941:A 37.0741 
*END

*D_NET *823 5.39118e-05
*CONN
*I *1942:A I *D BUFx3_ASAP7_75t_R
*I *1574:Y O *D OA21x2_ASAP7_75t_R
*CAP
1 *1942:A 1.99759e-05
2 *1574:Y 6.97997e-06
3 *823:8 2.69559e-05
*RES
1 *1574:Y *823:8 37.0741 
2 *823:8 *1942:A 47.3528 
*END

*D_NET *824 1.13706e-05
*CONN
*I *1943:A I *D BUFx3_ASAP7_75t_R
*I *1570:Y O *D OA21x2_ASAP7_75t_R
*CAP
1 *1943:A 5.6853e-06
2 *1570:Y 5.6853e-06
*RES
1 *1570:Y *1943:A 37.0741 
*END

*D_NET *825 0.000101277
*CONN
*I *1944:A I *D BUFx3_ASAP7_75t_R
*I *1566:Y O *D OA21x2_ASAP7_75t_R
*CAP
1 *1944:A 1.65111e-05
2 *1566:Y 9.0321e-06
3 *825:16 3.29246e-05
4 *825:8 2.54456e-05
5 *825:16 *1566:A2 8.33296e-06
6 *1181:B *825:8 2.83874e-07
7 *1566:B *825:8 2.67272e-06
8 *382:8 *825:8 2.38884e-06
9 *638:8 *825:16 3.68565e-06
*RES
1 *1566:Y *825:8 42.2843 
2 *825:8 *825:16 45.2382 
3 *825:16 *1944:A 44.5617 
*END

*D_NET *826 2.92686e-05
*CONN
*I *1945:A I *D BUFx3_ASAP7_75t_R
*I *1561:Y O *D OA21x2_ASAP7_75t_R
*CAP
1 *1945:A 0
2 *1561:Y 1.24956e-05
3 *826:10 1.24956e-05
4 *826:10 *1946:A 0
5 *826:10 *980:8 2.68933e-07
6 *1561:B *826:10 4.00846e-06
7 *636:10 *826:10 0
*RES
1 *1561:Y *826:10 41.5795 
2 *826:10 *1945:A 34.4 
*END

*D_NET *692 0.000143751
*CONN
*I *2037:A I *D BUFx3_ASAP7_75t_R
*I *1119:A I *D INVx1_ASAP7_75t_R
*I *1811:Y O *D BUFx2_ASAP7_75t_R
*CAP
1 *2037:A 0
2 *1119:A 0
3 *1811:Y 4.16508e-05
4 *692:14 2.36965e-05
5 *692:6 6.53473e-05
6 *692:6 *846:13 9.9223e-06
7 *4:14 *692:14 0
8 *107:6 *692:14 3.13426e-06
*RES
1 *1811:Y *692:6 40.1975 
2 *692:6 *692:14 47.4909 
3 *692:14 *1119:A 17.2 
4 *692:6 *2037:A 17.2 
*END

*D_NET *827 9.17043e-05
*CONN
*I *1946:A I *D BUFx3_ASAP7_75t_R
*I *1557:Y O *D OA21x2_ASAP7_75t_R
*CAP
1 *1946:A 2.5697e-05
2 *1557:Y 1.74319e-05
3 *827:8 4.3129e-05
4 *1946:A *980:8 0
5 *1946:A *981:8 0
6 *827:8 *1561:A2 2.19283e-06
7 *1265:B *1946:A 0
8 *1556:C *1946:A 0
9 *1561:A1 *827:8 3.25357e-06
10 *437:10 *1946:A 0
11 *628:38 *1946:A 0
12 *826:10 *1946:A 0
*RES
1 *1557:Y *827:8 41.3527 
2 *827:8 *1946:A 48.9573 
*END

*D_NET *828 0.00028554
*CONN
*I *1947:A I *D BUFx3_ASAP7_75t_R
*I *1427:Y O *D AOI21x1_ASAP7_75t_R
*CAP
1 *1947:A 0
2 *1427:Y 5.57959e-06
3 *828:36 6.77074e-06
4 *828:28 0.00012793
5 *828:20 0.000126638
6 *828:10 1.10588e-05
7 *828:10 *1112:10 4.35885e-06
8 *828:28 *831:28 0
9 *828:36 *1415:A1 3.58091e-07
10 *828:36 *834:14 2.48762e-06
11 *287:32 *828:28 0
12 *529:25 *828:20 3.58461e-07
*RES
1 *1427:Y *828:10 37.4124 
2 *828:10 *828:20 42.1227 
3 *828:20 *828:28 49.9054 
4 *828:28 *828:36 36.8139 
5 *828:36 *1947:A 17.2 
*END

*D_NET *829 7.03423e-05
*CONN
*I *1948:A I *D BUFx3_ASAP7_75t_R
*I *1553:Y O *D OA21x2_ASAP7_75t_R
*CAP
1 *1948:A 0
2 *1553:Y 2.02865e-05
3 *829:10 2.02865e-05
4 *314:8 *829:10 3.57576e-06
5 *315:25 *829:10 2.61935e-05
6 *630:18 *829:10 0
*RES
1 *1553:Y *829:10 46.9277 
2 *829:10 *1948:A 34.4 
*END

*D_NET *830 0.000257191
*CONN
*I *1949:A I *D BUFx3_ASAP7_75t_R
*I *1610:Y O *D OA21x2_ASAP7_75t_R
*CAP
1 *1949:A 2.12521e-05
2 *1610:Y 3.16049e-06
3 *830:10 8.21847e-05
4 *830:8 6.4093e-05
5 *830:10 *849:29 8.42016e-07
6 *830:10 *858:13 0
7 *830:10 *938:29 4.51755e-06
8 *830:10 *1024:10 0
9 *830:10 *1025:8 3.2842e-06
10 *830:10 *1025:14 7.49412e-06
11 *341:53 *830:10 3.61852e-06
12 *344:34 *830:10 5.91365e-06
13 *345:12 *830:10 1.09067e-06
14 *345:27 *830:10 0
15 *351:22 *830:10 0
16 *352:8 *830:10 1.31716e-05
17 *352:18 *830:10 8.08836e-06
18 *354:10 *830:10 8.2174e-07
19 *354:20 *830:10 2.45028e-06
20 *464:8 *830:10 0
21 *628:143 *830:10 0
22 *653:10 *830:10 2.74606e-06
23 *695:8 *830:10 0
24 *704:8 *830:10 3.24621e-05
*RES
1 *1610:Y *830:8 36.0045 
2 *830:8 *830:10 53.5008 
3 *830:10 *1949:A 45.6313 
*END

*D_NET *831 0.000259275
*CONN
*I *1950:A I *D BUFx3_ASAP7_75t_R
*I *1425:Y O *D AOI21x1_ASAP7_75t_R
*CAP
1 *1950:A 0
2 *1425:Y 1.25912e-06
3 *831:34 1.85939e-06
4 *831:28 6.87032e-05
5 *831:18 8.77479e-05
6 *831:8 2.21632e-05
7 *831:8 *1425:A2 0
8 *831:18 *843:25 1.38386e-06
9 *831:18 *1112:34 1.00692e-05
10 *831:28 *843:13 4.05388e-05
11 *831:28 *882:13 2.10151e-05
12 *831:28 *1081:63 2.02712e-06
13 *287:32 *831:28 2.50851e-06
14 *534:10 *831:34 0
15 *828:28 *831:28 0
*RES
1 *1425:Y *831:8 35.2447 
2 *831:8 *831:18 49.2651 
3 *831:18 *831:28 46.609 
4 *831:28 *831:34 35.8079 
5 *831:34 *1950:A 17.2 
*END

*D_NET *832 2.76146e-05
*CONN
*I *1951:A I *D BUFx3_ASAP7_75t_R
*I *1423:Y O *D AOI21x1_ASAP7_75t_R
*CAP
1 *1951:A 0
2 *1423:Y 1.38073e-05
3 *832:10 1.38073e-05
*RES
1 *1423:Y *832:10 41.5795 
2 *832:10 *1951:A 34.4 
*END

*D_NET *833 7.9059e-05
*CONN
*I *1952:A I *D BUFx3_ASAP7_75t_R
*I *1419:Y O *D AOI21x1_ASAP7_75t_R
*CAP
1 *1952:A 0
2 *1419:Y 3.76077e-05
3 *833:6 3.76077e-05
4 *833:6 *1081:71 3.84351e-06
*RES
1 *1419:Y *833:6 35.9189 
2 *833:6 *1952:A 17.2 
*END

*D_NET *834 9.38169e-05
*CONN
*I *1953:A I *D BUFx3_ASAP7_75t_R
*I *1415:Y O *D AOI21x1_ASAP7_75t_R
*CAP
1 *1953:A 0
2 *1415:Y 1.11936e-05
3 *834:14 3.33226e-05
4 *834:8 4.45162e-05
5 *834:14 *985:6 2.29685e-06
6 *828:36 *834:14 2.48762e-06
*RES
1 *1415:Y *834:8 38.1438 
2 *834:8 *834:14 40.2048 
3 *834:14 *1953:A 17.2 
*END

*D_NET *835 0.000118084
*CONN
*I *1954:A I *D BUFx3_ASAP7_75t_R
*I *1606:Y O *D AOI21x1_ASAP7_75t_R
*CAP
1 *1954:A 2.03452e-05
2 *1606:Y 1.92861e-05
3 *835:10 3.96313e-05
4 *223:10 *835:10 4.77975e-06
5 *287:42 *835:10 4.83862e-06
6 *287:46 *1954:A 2.12481e-06
7 *287:46 *835:10 2.70479e-05
8 *534:10 *835:10 3.05118e-08
*RES
1 *1606:Y *835:10 46.3645 
2 *835:10 *1954:A 45.6313 
*END

*D_NET *836 7.81433e-05
*CONN
*I *1955:A I *D BUFx3_ASAP7_75t_R
*I *1473:Y O *D OA21x2_ASAP7_75t_R
*CAP
1 *1955:A 1.61709e-05
2 *1473:Y 1.54711e-05
3 *836:10 3.1642e-05
4 *569:14 *836:10 1.48593e-05
*RES
1 *1473:Y *836:10 43.7754 
2 *836:10 *1955:A 42.4224 
*END

*D_NET *693 5.87345e-05
*CONN
*I *1221:A I *D INVx1_ASAP7_75t_R
*I *1812:Y O *D BUFx2_ASAP7_75t_R
*CAP
1 *1221:A 2.89587e-05
2 *1812:Y 2.89587e-05
3 *1221:A *1053:8 8.17002e-07
*RES
1 *1812:Y *1221:A 46.701 
*END

*D_NET *837 0.00016876
*CONN
*I *1956:A I *D BUFx3_ASAP7_75t_R
*I *1471:Y O *D OA21x2_ASAP7_75t_R
*CAP
1 *1956:A 0
2 *1471:Y 3.42802e-05
3 *837:14 4.38859e-05
4 *837:8 7.81661e-05
5 *837:8 *1088:6 0
6 *837:14 *1088:12 0
7 *1162:A *837:14 1.67401e-06
8 *1162:B *837:14 1.07534e-05
9 *568:10 *837:14 0
*RES
1 *1471:Y *837:8 48.8403 
2 *837:8 *837:14 42.057 
3 *837:14 *1956:A 17.2 
*END

*D_NET *694 5.78895e-05
*CONN
*I *1351:A I *D INVx1_ASAP7_75t_R
*I *1813:Y O *D BUFx2_ASAP7_75t_R
*CAP
1 *1351:A 2.3086e-05
2 *1813:Y 5.85879e-06
3 *694:8 2.89448e-05
*RES
1 *1813:Y *694:8 37.779 
2 *694:8 *1351:A 44.5617 
*END

*D_NET *695 0.000439651
*CONN
*I *1562:A I *D INVx1_ASAP7_75t_R
*I *1814:Y O *D BUFx2_ASAP7_75t_R
*CAP
1 *1562:A 0
2 *1814:Y 1.51361e-05
3 *695:40 5.23241e-06
4 *695:28 9.27146e-05
5 *695:20 9.54352e-05
6 *695:8 2.30892e-05
7 *695:8 *704:8 0
8 *695:8 *784:8 0
9 *695:8 *787:8 2.51625e-06
10 *695:8 *830:10 0
11 *695:8 *941:13 5.23722e-06
12 *695:8 *984:10 2.45021e-07
13 *695:20 *704:20 6.15061e-07
14 *695:20 *787:29 1.74006e-07
15 *695:20 *946:17 4.22183e-06
16 *695:28 *704:26 3.99417e-05
17 *695:28 *704:36 3.42392e-06
18 *695:28 *979:24 0.000150323
19 *695:40 *1004:14 5.49212e-07
20 *344:28 *695:20 7.96564e-07
21 *624:49 *695:28 0
*RES
1 *1814:Y *695:8 46.8835 
2 *695:8 *695:20 43.0138 
3 *695:20 *695:28 47.2306 
4 *695:28 *695:40 42.6636 
5 *695:40 *1562:A 34.4 
*END

*D_NET *696 0.000531461
*CONN
*I *1166:A I *D INVx1_ASAP7_75t_R
*I *1815:Y O *D BUFx2_ASAP7_75t_R
*CAP
1 *1166:A 0
2 *1815:Y 3.58833e-06
3 *696:42 1.51692e-06
4 *696:36 3.96799e-05
5 *696:24 0.000110226
6 *696:20 8.00613e-05
7 *696:8 1.1587e-05
8 *696:8 *797:10 2.86811e-06
9 *696:20 *850:25 0
10 *696:24 *697:28 5.77947e-05
11 *696:24 *706:28 0
12 *696:24 *853:13 0
13 *696:24 *980:24 0.000151971
14 *696:24 *981:24 6.22906e-05
15 *696:36 *697:28 0
16 *696:36 *705:36 0
17 *696:36 *705:59 2.9066e-08
18 *696:36 *706:28 0
19 *30:10 *696:42 2.68933e-07
20 *48:12 *696:8 4.26863e-06
21 *612:34 *696:36 1.86017e-06
22 *633:12 *696:42 3.45062e-06
*RES
1 *1815:Y *696:8 38.436 
2 *696:8 *696:20 42.7973 
3 *696:20 *696:24 44.6277 
4 *696:24 *696:36 40.6753 
5 *696:36 *696:42 35.6202 
6 *696:42 *1166:A 17.2 
*END

*D_NET *679 3.91248e-05
*CONN
*I *1302:A I *D INVx1_ASAP7_75t_R
*I *1532:Y O *D BUFx2_ASAP7_75t_R
*CAP
1 *1302:A 0
2 *1532:Y 1.95624e-05
3 *679:10 1.95624e-05
*RES
1 *1532:Y *679:10 43.6621 
2 *679:10 *1302:A 34.4 
*END

*D_NET *697 0.00059564
*CONN
*I *1212:A I *D INVx4_ASAP7_75t_R
*I *1816:Y O *D BUFx12f_ASAP7_75t_R
*CAP
1 *1212:A 1.04743e-05
2 *1816:Y 1.5818e-05
3 *697:38 2.03107e-05
4 *697:28 8.67108e-05
5 *697:22 0.000108806
6 *697:16 6.12266e-05
7 *697:8 4.51131e-05
8 *1212:A *705:44 9.1471e-07
9 *697:8 *800:10 1.55647e-06
10 *697:8 *945:29 1.93482e-06
11 *697:16 *705:20 8.61671e-07
12 *697:16 *851:29 0
13 *697:16 *945:29 1.17643e-06
14 *697:22 *706:20 6.02153e-06
15 *697:28 *706:28 0
16 *697:28 *980:24 0.000159763
17 *697:28 *983:24 0
18 *697:38 *705:36 1.31578e-05
19 *67:12 *1212:A 8.96443e-08
20 *348:10 *697:8 1.74339e-06
21 *612:76 *1212:A 0
22 *635:8 *1212:A 2.1664e-06
23 *696:24 *697:28 5.77947e-05
24 *696:36 *697:28 0
*RES
1 *1816:Y *697:8 45.3817 
2 *697:8 *697:16 39.5858 
3 *697:16 *697:22 26.4149 
4 *697:22 *697:28 39.6411 
5 *697:28 *697:38 44.8489 
6 *697:38 *1212:A 43.6922 
*END

*D_NET *698 3.50738e-05
*CONN
*I *1319:A I *D INVx3_ASAP7_75t_R
*I *1817:Y O *D BUFx6f_ASAP7_75t_R
*CAP
1 *1319:A 0
2 *1817:Y 1.56338e-05
3 *698:10 1.56338e-05
4 *131:8 *698:10 5.49212e-07
5 *315:10 *698:10 3.25708e-06
*RES
1 *1817:Y *698:10 45.0151 
2 *698:10 *1319:A 34.4 
*END

*D_NET *699 0.000144449
*CONN
*I *1310:A I *D INVx8_ASAP7_75t_R
*I *1818:Y O *D BUFx12f_ASAP7_75t_R
*CAP
1 *1310:A 3.73918e-06
2 *1818:Y 0
3 *699:8 4.87724e-05
4 *699:6 4.50332e-05
5 *699:8 *708:32 9.98889e-07
6 *699:8 *1042:8 0
7 *1695:A *699:8 0
8 *131:21 *699:8 0
9 *133:8 *699:8 5.68573e-06
10 *133:18 *699:8 4.02193e-05
11 *257:8 *699:8 0
12 *258:8 *699:8 0
13 *259:16 *699:8 0
*RES
1 *1818:Y *699:6 34.4 
2 *699:6 *699:8 37.169 
3 *699:8 *1310:A 36.0045 
*END

*D_NET *700 0.000766606
*CONN
*I *2036:A I *D BUFx3_ASAP7_75t_R
*I *1611:A I *D HAxp5_ASAP7_75t_R
*I *1819:Y O *D BUFx2_ASAP7_75t_R
*CAP
1 *2036:A 1.45626e-05
2 *1611:A 1.63741e-06
3 *1819:Y 1.16491e-05
4 *700:30 2.10314e-05
5 *700:20 3.9703e-05
6 *700:16 5.76442e-05
7 *700:8 3.44217e-05
8 *1611:A *1071:14 0
9 *2036:A *1019:8 0
10 *2036:A *1071:8 6.78445e-06
11 *2036:A *1071:14 0
12 *700:8 *712:8 1.00467e-06
13 *700:8 *717:8 1.56475e-06
14 *700:16 *717:16 4.25578e-05
15 *700:16 *761:18 0
16 *700:16 *866:17 2.51495e-06
17 *700:16 *866:27 6.18765e-06
18 *700:16 *915:27 0
19 *700:20 *717:24 0.000244371
20 *700:20 *805:20 0.000279298
21 *700:30 *717:32 1.67299e-06
22 *287:20 *700:20 0
*RES
1 *1819:Y *700:8 42.1905 
2 *700:8 *700:16 38.7704 
3 *700:16 *700:20 38.9803 
4 *700:20 *700:30 42.2517 
5 *700:30 *1611:A 35.6202 
6 *700:30 *2036:A 45.3144 
*END

*D_NET *701 0.00027816
*CONN
*I *2035:A I *D BUFx3_ASAP7_75t_R
*I *1646:B I *D HAxp5_ASAP7_75t_R
*I *1820:Y O *D BUFx2_ASAP7_75t_R
*CAP
1 *2035:A 0
2 *1646:B 0
3 *1820:Y 3.08845e-06
4 *701:39 1.8242e-06
5 *701:33 3.89337e-05
6 *701:20 1.36681e-05
7 *701:12 0.000116742
8 *701:8 6.90525e-05
9 *701:12 *862:21 0
10 *701:12 *1015:28 0
11 *701:20 *862:21 0
12 *701:33 *708:18 3.4272e-05
13 *701:33 *862:21 5.79064e-07
*RES
1 *1820:Y *701:8 35.9956 
2 *701:8 *701:12 38.1404 
3 *701:12 *701:20 39.6563 
4 *701:20 *1646:B 17.2 
5 *701:12 *701:33 41.1696 
6 *701:33 *701:39 35.4325 
7 *701:39 *2035:A 17.2 
*END

*D_NET *1079 0.000103718
*CONN
*I *1429:A1 I *D AOI21x1_ASAP7_75t_R
*I *2044:Y O *D BUFx6f_ASAP7_75t_R
*CAP
1 *1429:A1 3.15792e-06
2 *2044:Y 5.50418e-06
3 *1079:16 2.81413e-05
4 *1079:8 3.04876e-05
5 *1079:16 *1092:10 5.37866e-07
6 *1079:16 *1112:72 3.079e-06
7 *1432:A2 *1079:16 3.86483e-06
8 *230:10 *1079:8 1.73733e-05
9 *264:23 *1079:8 2.69463e-06
10 *539:6 *1429:A1 8.87763e-06
*RES
1 *2044:Y *1079:8 40.3132 
2 *1079:8 *1079:16 43.3832 
3 *1079:16 *1429:A1 37.0741 
*END

*D_NET *1080 8.3546e-05
*CONN
*I *1425:A2 I *D AOI21x1_ASAP7_75t_R
*I *2045:Y O *D BUFx6f_ASAP7_75t_R
*CAP
1 *1425:A2 1.09161e-05
2 *2045:Y 1.27558e-05
3 *1080:8 2.36719e-05
4 *1425:A2 *1090:8 1.65521e-05
5 *1080:8 *1427:A1 2.12481e-06
6 *198:10 *1425:A2 1.75253e-05
7 *831:8 *1425:A2 0
*RES
1 *2045:Y *1080:8 39.2134 
2 *1080:8 *1425:A2 48.4791 
*END

*D_NET *702 0.000171817
*CONN
*I *1572:A1 I *D AO21x2_ASAP7_75t_R
*I *1656:B I *D HAxp5_ASAP7_75t_R
*I *1821:Y O *D BUFx2_ASAP7_75t_R
*CAP
1 *1572:A1 0
2 *1656:B 9.65999e-06
3 *1821:Y 2.05346e-05
4 *702:23 3.13597e-05
5 *702:10 6.15543e-05
6 *1656:B *1015:66 2.52755e-07
7 *702:10 *856:13 1.90634e-06
8 *702:10 *1015:68 0
9 *702:10 *1053:14 0
10 *702:23 *1572:A2 3.875e-06
11 *702:23 *703:25 0
12 *702:23 *857:27 2.516e-06
13 *702:23 *1015:68 0
14 *702:23 *1015:79 0
15 *702:23 *1015:94 6.10236e-07
16 *702:23 *1053:14 0
17 *1656:A *702:10 8.06799e-07
18 *135:10 *1656:B 5.19475e-06
19 *136:8 *1656:B 3.3547e-05
20 *233:12 *702:23 0
21 *639:8 *702:23 0
*RES
1 *1821:Y *702:10 45.3516 
2 *702:10 *1656:B 44.5617 
3 *702:10 *702:23 39.7266 
4 *702:23 *1572:A1 17.2 
*END

*D_NET *1081 0.000342729
*CONN
*I *1419:A1 I *D AOI21x1_ASAP7_75t_R
*I *1606:A2 I *D AOI21x1_ASAP7_75t_R
*I *1415:A2 I *D AOI21x1_ASAP7_75t_R
*I *1423:A2 I *D AOI21x1_ASAP7_75t_R
*I *2046:Y O *D BUFx3_ASAP7_75t_R
*CAP
1 *1419:A1 0
2 *1606:A2 0
3 *1415:A2 0
4 *1423:A2 1.70753e-05
5 *2046:Y 7.59058e-06
6 *1081:71 6.30461e-06
7 *1081:63 3.73567e-05
8 *1081:50 2.31156e-05
9 *1081:42 7.07215e-05
10 *1081:18 4.09708e-05
11 *1081:8 4.80399e-05
12 *1081:42 *1415:A1 0
13 *1081:42 *1093:8 3.32579e-06
14 *1081:50 *1113:10 2.74606e-07
15 *1081:71 *1089:10 1.49407e-08
16 *1415:B *1423:A2 3.24214e-06
17 *1423:B *1423:A2 6.01313e-06
18 *1971:A *1081:8 5.09299e-06
19 *223:10 *1081:71 8.14425e-07
20 *223:12 *1081:18 0
21 *253:16 *1081:50 1.49407e-08
22 *287:32 *1081:63 5.91419e-06
23 *287:42 *1081:50 9.36411e-07
24 *529:48 *1081:50 2.94325e-05
25 *534:10 *1081:18 3.95007e-06
26 *534:10 *1081:42 1.22987e-05
27 *534:10 *1081:71 1.84268e-06
28 *651:10 *1081:50 2.13376e-07
29 *831:28 *1081:63 2.02712e-06
30 *833:6 *1081:71 3.84351e-06
31 *864:25 *1081:63 0
32 *882:25 *1081:50 0
33 *1006:8 *1423:A2 9.04548e-06
34 *1006:8 *1081:18 3.25683e-06
*RES
1 *2046:Y *1081:8 38.1438 
2 *1081:8 *1081:18 48.6739 
3 *1081:18 *1423:A2 47.0977 
4 *1081:18 *1415:A2 34.4 
5 *1081:8 *1081:42 29.7288 
6 *1081:42 *1081:50 45.6017 
7 *1081:50 *1606:A2 17.2 
8 *1081:42 *1081:63 34.7878 
9 *1081:63 *1081:71 38.8575 
10 *1081:71 *1419:A1 17.2 
*END

*D_NET *992 9.33833e-05
*CONN
*I *1548:B1 I *D AOI22x1_ASAP7_75t_R
*I *1957:Y O *D BUFx3_ASAP7_75t_R
*CAP
1 *1548:B1 0
2 *1957:Y 2.76678e-06
3 *992:12 2.53354e-05
4 *992:8 2.81022e-05
5 *992:12 *1548:A1 5.62196e-06
6 *992:12 *1004:14 9.30483e-06
7 *992:12 *1004:27 7.13384e-06
8 *53:10 *992:8 0
9 *620:20 *992:8 8.33296e-06
10 *627:27 *992:12 4.66054e-06
11 *628:10 *992:12 2.12481e-06
*RES
1 *1957:Y *992:8 37.2158 
2 *992:8 *992:12 33.7796 
3 *992:12 *1548:B1 17.2 
*END

*D_NET *993 0.000112339
*CONN
*I *1430:A1 I *D OAI21x1_ASAP7_75t_R
*I *1958:Y O *D BUFx3_ASAP7_75t_R
*CAP
1 *1430:A1 0
2 *1958:Y 5.79274e-06
3 *993:18 3.17195e-05
4 *993:10 3.75122e-05
5 *993:18 *1082:10 2.96419e-06
6 *521:14 *993:18 3.28924e-05
7 *522:10 *993:10 1.45743e-06
8 *529:25 *993:18 0
*RES
1 *1958:Y *993:10 37.2247 
2 *993:10 *993:18 47.553 
3 *993:18 *1430:A1 34.4 
*END

*D_NET *994 4.28198e-05
*CONN
*I *1548:B2 I *D AOI22x1_ASAP7_75t_R
*I *1959:Y O *D BUFx3_ASAP7_75t_R
*CAP
1 *1548:B2 0
2 *1959:Y 1.42911e-05
3 *994:8 1.42911e-05
4 *241:12 *994:8 0
5 *243:21 *994:8 5.52807e-07
6 *623:10 *994:8 5.95235e-06
7 *627:14 *994:8 7.7325e-06
*RES
1 *1959:Y *994:8 47.3528 
2 *994:8 *1548:B2 34.4 
*END

*D_NET *995 8.62746e-05
*CONN
*I *1489:B1 I *D AOI22x1_ASAP7_75t_R
*I *1960:Y O *D BUFx3_ASAP7_75t_R
*CAP
1 *1489:B1 2.59802e-06
2 *1960:Y 3.39936e-05
3 *995:8 3.65917e-05
4 *1960:A *995:8 4.41312e-06
5 *325:8 *1489:B1 0
6 *582:18 *1489:B1 8.67816e-06
7 *582:24 *995:8 0
*RES
1 *1960:Y *995:8 49.9099 
2 *995:8 *1489:B1 37.2158 
*END

*D_NET *1082 4.84908e-05
*CONN
*I *1430:A2 I *D OAI21x1_ASAP7_75t_R
*I *2047:Y O *D BUFx3_ASAP7_75t_R
*CAP
1 *1430:A2 3.51764e-06
2 *2047:Y 1.11298e-05
3 *1082:10 1.46475e-05
4 *198:12 *1082:10 0
5 *523:18 *1082:10 5.19475e-06
6 *524:12 *1082:10 1.09842e-06
7 *527:22 *1082:10 9.93857e-06
8 *993:18 *1082:10 2.96419e-06
*RES
1 *2047:Y *1082:10 42.7625 
2 *1082:10 *1430:A2 36.0045 
*END

*D_NET *996 2.79977e-05
*CONN
*I *1430:B I *D OAI21x1_ASAP7_75t_R
*I *1961:Y O *D BUFx3_ASAP7_75t_R
*CAP
1 *1430:B 0
2 *1961:Y 1.27584e-05
3 *996:10 1.27584e-05
4 *198:12 *996:10 1.70866e-06
5 *524:12 *996:10 0
6 *528:21 *996:10 7.72307e-07
*RES
1 *1961:Y *996:10 41.5795 
2 *996:10 *1430:B 34.4 
*END

*D_NET *997 2.34555e-05
*CONN
*I *1410:A I *D NAND2x1_ASAP7_75t_R
*I *1962:Y O *D BUFx3_ASAP7_75t_R
*CAP
1 *1410:A 2.90034e-06
2 *1962:Y 3.4601e-06
3 *997:8 6.36043e-06
4 *997:8 *1094:10 4.41094e-06
5 *997:8 *1112:10 1.12894e-06
6 *528:21 *1410:A 5.19475e-06
*RES
1 *1962:Y *997:8 37.779 
2 *997:8 *1410:A 36.0045 
*END

*D_NET *1083 0.000112065
*CONN
*I *1489:A2 I *D AOI22x1_ASAP7_75t_R
*I *1490:A2 I *D AO22x2_ASAP7_75t_R
*I *2048:Y O *D BUFx3_ASAP7_75t_R
*CAP
1 *1489:A2 0
2 *1490:A2 0
3 *2048:Y 1.65207e-05
4 *1083:17 1.89056e-05
5 *1083:6 3.54262e-05
6 *1490:B1 *1083:17 1.30409e-05
7 *1490:B2 *1083:6 1.95129e-06
8 *1490:B2 *1083:17 7.13384e-06
9 *1960:A *1083:17 4.83862e-06
10 *325:8 *1083:17 1.62854e-06
11 *582:18 *1083:17 5.37866e-07
12 *1003:14 *1083:6 3.81733e-06
13 *1003:25 *1083:6 1.02298e-06
14 *1003:25 *1083:17 7.24115e-06
*RES
1 *2048:Y *1083:6 28.4313 
2 *1083:6 *1490:A2 17.2 
3 *1083:6 *1083:17 33.2201 
4 *1083:17 *1489:A2 34.4 
*END

*D_NET *998 5.63168e-05
*CONN
*I *1551:A1 I *D AO22x2_ASAP7_75t_R
*I *1548:A1 I *D AOI22x1_ASAP7_75t_R
*I *1963:Y O *D BUFx3_ASAP7_75t_R
*CAP
1 *1551:A1 9.70659e-06
2 *1548:A1 2.33914e-06
3 *1963:Y 5.40936e-06
4 *998:8 1.74551e-05
5 *1551:A1 *1004:14 2.52962e-06
6 *1551:A1 *1004:27 5.11348e-06
7 *998:8 *1004:14 7.43799e-06
8 *622:10 *998:8 0
9 *627:8 *1551:A1 4.57263e-07
10 *628:10 *1551:A1 1.49407e-08
11 *628:10 *998:8 2.31409e-07
12 *992:12 *1548:A1 5.62196e-06
*RES
1 *1963:Y *998:8 40.0317 
2 *998:8 *1548:A1 36.0045 
3 *998:8 *1551:A1 41.158 
*END

*D_NET *703 0.000208484
*CONN
*I *1568:A1 I *D AO21x2_ASAP7_75t_R
*I *1648:B I *D HAxp5_ASAP7_75t_R
*I *1822:Y O *D BUFx2_ASAP7_75t_R
*CAP
1 *1568:A1 0
2 *1648:B 0
3 *1822:Y 3.02378e-05
4 *703:25 1.35697e-05
5 *703:12 4.13809e-05
6 *703:6 8.51883e-05
7 *703:12 *1567:A 5.0551e-07
8 *703:25 *1015:68 1.12894e-06
9 *703:25 *1015:79 4.65366e-06
10 *703:25 *1047:10 1.2903e-05
11 *112:10 *703:12 8.66473e-06
12 *112:14 *703:12 0
13 *277:10 *703:25 6.33181e-06
14 *600:12 *703:12 3.92018e-06
15 *702:23 *703:25 0
*RES
1 *1822:Y *703:6 30.5706 
2 *703:6 *703:12 38.7347 
3 *703:12 *1648:B 34.4 
4 *703:6 *703:25 47.916 
5 *703:25 *1568:A1 17.2 
*END

*D_NET *1000 0.000104027
*CONN
*I *1483:A1 I *D OAI21x1_ASAP7_75t_R
*I *1965:Y O *D BUFx3_ASAP7_75t_R
*CAP
1 *1483:A1 0
2 *1965:Y 0
3 *1000:10 4.12696e-05
4 *1000:6 4.12696e-05
5 *1000:10 *1105:10 0
6 *9:8 *1000:10 0
7 *248:16 *1000:10 1.53071e-05
8 *249:10 *1000:10 0
9 *252:10 *1000:10 0
10 *325:8 *1000:10 0
11 *326:12 *1000:10 2.53758e-06
12 *328:12 *1000:10 1.93482e-06
13 *328:35 *1000:10 0
14 *582:18 *1000:10 1.70866e-06
*RES
1 *1965:Y *1000:6 34.4 
2 *1000:6 *1000:10 47.611 
3 *1000:10 *1483:A1 17.2 
*END

*D_NET *1001 1.55814e-05
*CONN
*I *1542:A1 I *D OAI21x1_ASAP7_75t_R
*I *1966:Y O *D BUFx3_ASAP7_75t_R
*CAP
1 *1542:A1 0
2 *1966:Y 6.41367e-06
3 *1001:8 6.41367e-06
4 *1542:B *1001:8 2.20128e-06
5 *54:12 *1001:8 5.52807e-07
6 *79:22 *1001:8 0
*RES
1 *1966:Y *1001:8 38.9053 
2 *1001:8 *1542:A1 34.4 
*END

*D_NET *1002 5.88739e-05
*CONN
*I *1410:B I *D NAND2x1_ASAP7_75t_R
*I *1967:Y O *D BUFx3_ASAP7_75t_R
*CAP
1 *1410:B 0
2 *1967:Y 1.53252e-05
3 *1002:10 1.53252e-05
4 *1002:10 *1112:10 3.6269e-06
5 *1411:B *1002:10 8.58704e-06
6 *1967:A *1002:10 7.09708e-06
7 *528:8 *1002:10 4.97654e-06
8 *529:8 *1002:10 3.84449e-06
9 *529:25 *1002:10 9.15354e-08
*RES
1 *1967:Y *1002:10 45.9714 
2 *1002:10 *1410:B 34.4 
*END

*D_NET *1003 0.000199682
*CONN
*I *1489:A1 I *D AOI22x1_ASAP7_75t_R
*I *1490:A1 I *D AO22x2_ASAP7_75t_R
*I *1968:Y O *D BUFx3_ASAP7_75t_R
*CAP
1 *1489:A1 0
2 *1490:A1 0
3 *1968:Y 1.86742e-05
4 *1003:25 2.8844e-05
5 *1003:14 6.87709e-05
6 *1003:8 5.86011e-05
7 *1003:14 *1083:6 3.81733e-06
8 *1003:25 *1083:6 1.02298e-06
9 *1003:25 *1083:17 7.24115e-06
10 *1490:B2 *1003:25 1.59615e-06
11 *219:10 *1003:14 0
12 *307:12 *1003:14 4.10928e-06
13 *325:8 *1003:25 6.48289e-06
14 *578:8 *1003:8 5.22376e-07
*RES
1 *1968:Y *1003:8 45.6313 
2 *1003:8 *1003:14 37.2719 
3 *1003:14 *1490:A1 17.2 
4 *1003:14 *1003:25 32.9933 
5 *1003:25 *1489:A1 34.4 
*END

*D_NET *1004 0.00019856
*CONN
*I *1551:A2 I *D AO22x2_ASAP7_75t_R
*I *1548:A2 I *D AOI22x1_ASAP7_75t_R
*I *1969:Y O *D BUFx3_ASAP7_75t_R
*CAP
1 *1551:A2 0
2 *1548:A2 0
3 *1969:Y 1.38908e-05
4 *1004:27 8.10154e-06
5 *1004:14 2.63765e-05
6 *1004:8 3.21658e-05
7 *1551:A1 *1004:14 2.52962e-06
8 *1551:A1 *1004:27 5.11348e-06
9 *241:12 *1004:14 0
10 *622:10 *1004:14 0
11 *623:10 *1004:27 0
12 *627:14 *1004:8 9.9223e-06
13 *627:14 *1004:14 5.21889e-05
14 *627:27 *1004:14 9.30483e-06
15 *627:27 *1004:27 1.45405e-05
16 *695:40 *1004:14 5.49212e-07
17 *992:12 *1004:14 9.30483e-06
18 *992:12 *1004:27 7.13384e-06
19 *998:8 *1004:14 7.43799e-06
*RES
1 *1969:Y *1004:8 44.5617 
2 *1004:8 *1004:14 39.5849 
3 *1004:14 *1548:A2 17.2 
4 *1004:14 *1004:27 42.7058 
5 *1004:27 *1551:A2 17.2 
*END

*D_NET *1005 7.52407e-05
*CONN
*I *1610:A2 I *D OA21x2_ASAP7_75t_R
*I *1970:Y O *D BUFx3_ASAP7_75t_R
*CAP
1 *1610:A2 0
2 *1970:Y 0
3 *1005:12 2.68231e-05
4 *1005:6 2.68231e-05
5 *240:10 *1005:12 0
6 *464:8 *1005:12 1.07573e-06
7 *623:10 *1005:12 3.73518e-07
8 *626:10 *1005:12 5.33743e-06
9 *628:77 *1005:12 1.20291e-05
10 *653:10 *1005:12 2.77876e-06
*RES
1 *1970:Y *1005:6 34.4 
2 *1005:6 *1005:12 39.6416 
3 *1005:12 *1610:A2 17.2 
*END

*D_NET *999 8.16603e-05
*CONN
*I *1598:A2 I *D OA21x2_ASAP7_75t_R
*I *1964:Y O *D BUFx3_ASAP7_75t_R
*CAP
1 *1598:A2 5.06835e-06
2 *1964:Y 5.38046e-06
3 *999:18 2.59621e-05
4 *999:10 2.62742e-05
5 *1598:B *999:10 5.51397e-07
6 *185:10 *999:18 3.67907e-06
7 *207:10 *999:10 0
8 *305:14 *999:10 6.72417e-07
9 *584:32 *999:18 0
10 *584:38 *999:18 0
11 *821:12 *1598:A2 1.40724e-05
*RES
1 *1964:Y *999:10 36.8492 
2 *999:10 *999:18 40.786 
3 *999:18 *1598:A2 38.6786 
*END

*D_NET *1084 3.59585e-05
*CONN
*I *1606:A1 I *D AOI21x1_ASAP7_75t_R
*I *2049:Y O *D BUFx3_ASAP7_75t_R
*CAP
1 *1606:A1 1.06494e-05
2 *2049:Y 2.9708e-06
3 *1084:8 1.36202e-05
4 *1084:8 *1113:10 1.94229e-07
5 *529:35 *1084:8 8.52381e-06
*RES
1 *2049:Y *1084:8 37.2158 
2 *1084:8 *1606:A1 40.2831 
*END

*D_NET *1085 6.33594e-05
*CONN
*I *1566:A2 I *D OA21x2_ASAP7_75t_R
*I *2050:Y O *D BUFx3_ASAP7_75t_R
*CAP
1 *1566:A2 1.36465e-05
2 *2050:Y 6.72187e-06
3 *1085:8 2.03683e-05
4 *1566:B *1566:A2 1.33478e-05
5 *628:143 *1566:A2 9.41947e-07
6 *631:10 *1566:A2 0
7 *825:16 *1566:A2 8.33296e-06
*RES
1 *2050:Y *1085:8 37.0741 
2 *1085:8 *1566:A2 47.3528 
*END

*D_NET *1086 5.56083e-05
*CONN
*I *1561:A2 I *D OA21x2_ASAP7_75t_R
*I *2051:Y O *D BUFx3_ASAP7_75t_R
*CAP
1 *1561:A2 1.0407e-05
2 *2051:Y 8.96765e-06
3 *1086:8 1.93747e-05
4 *1561:B *1561:A2 1.46661e-05
5 *827:8 *1561:A2 2.19283e-06
*RES
1 *2051:Y *1086:8 40.0317 
2 *1086:8 *1561:A2 40.8179 
*END

*D_NET *704 0.000470512
*CONN
*I *1649:B I *D HAxp5_ASAP7_75t_R
*I *1564:A1 I *D AO21x2_ASAP7_75t_R
*I *1823:Y O *D BUFx2_ASAP7_75t_R
*CAP
1 *1649:B 0
2 *1564:A1 0
3 *1823:Y 9.47393e-06
4 *704:55 2.16731e-05
5 *704:42 1.33267e-06
6 *704:36 5.09202e-05
7 *704:26 0.000111315
8 *704:20 9.7124e-05
9 *704:8 2.31969e-05
10 *704:8 *784:8 8.65771e-06
11 *704:8 *830:10 3.24621e-05
12 *704:20 *849:29 0
13 *704:20 *946:17 4.22183e-06
14 *704:26 *979:24 6.08977e-05
15 *704:42 *1015:148 8.96443e-08
16 *113:25 *704:55 6.33206e-07
17 *344:28 *704:20 1.28171e-06
18 *624:49 *704:36 0
19 *637:8 *704:55 3.25095e-06
20 *695:8 *704:8 0
21 *695:20 *704:20 6.15061e-07
22 *695:28 *704:26 3.99417e-05
23 *695:28 *704:36 3.42392e-06
*RES
1 *1823:Y *704:8 45.3817 
2 *704:8 *704:20 45.0077 
3 *704:20 *704:26 48.024 
4 *704:26 *704:36 30.7647 
5 *704:36 *704:42 35.2447 
6 *704:42 *1564:A1 17.2 
7 *704:36 *704:55 45.9406 
8 *704:55 *1649:B 17.2 
*END

*D_NET *1087 0.000226536
*CONN
*I *1513:A2 I *D OA21x2_ASAP7_75t_R
*I *2052:Y O *D BUFx3_ASAP7_75t_R
*CAP
1 *1513:A2 5.01913e-06
2 *2052:Y 2.12459e-06
3 *1087:40 1.40079e-05
4 *1087:28 9.00748e-05
5 *1087:20 9.06279e-05
6 *1087:8 1.16664e-05
7 *417:8 *1087:40 1.46457e-06
8 *583:122 *1087:40 1.17278e-06
9 *583:141 *1087:40 2.25037e-06
10 *595:10 *1087:40 2.98961e-07
11 *595:18 *1087:40 7.82915e-06
*RES
1 *2052:Y *1087:8 35.6202 
2 *1087:8 *1087:20 42.9569 
3 *1087:20 *1087:28 39.1295 
4 *1087:28 *1087:40 45.3787 
5 *1087:40 *1513:A2 37.0741 
*END

*D_NET *1088 8.73428e-05
*CONN
*I *1471:A2 I *D OA21x2_ASAP7_75t_R
*I *2053:Y O *D BUFx3_ASAP7_75t_R
*CAP
1 *1471:A2 0
2 *2053:Y 3.90867e-05
3 *1088:12 4.26468e-06
4 *1088:6 4.33514e-05
5 *99:8 *1088:12 0
6 *333:12 *1088:12 0
7 *556:93 *1088:12 6.40127e-07
8 *837:8 *1088:6 0
9 *837:14 *1088:12 0
*RES
1 *2053:Y *1088:6 34.8492 
2 *1088:6 *1088:12 37.2158 
3 *1088:12 *1471:A2 17.2 
*END

*D_NET *1006 6.21854e-05
*CONN
*I *1423:A1 I *D AOI21x1_ASAP7_75t_R
*I *1971:Y O *D BUFx3_ASAP7_75t_R
*CAP
1 *1423:A1 0
2 *1971:Y 1.86968e-05
3 *1006:8 1.86968e-05
4 *1006:8 *1415:A1 1.24895e-05
5 *1006:8 *1423:A2 9.04548e-06
6 *1006:8 *1081:18 3.25683e-06
7 *1415:B *1006:8 0
*RES
1 *1971:Y *1006:8 49.6055 
2 *1006:8 *1423:A1 34.4 
*END

*D_NET *1089 4.3899e-05
*CONN
*I *1419:A2 I *D AOI21x1_ASAP7_75t_R
*I *2054:Y O *D BUFx3_ASAP7_75t_R
*CAP
1 *1419:A2 0
2 *2054:Y 2.09689e-05
3 *1089:10 2.09689e-05
4 *534:10 *1089:10 1.94636e-06
5 *1081:71 *1089:10 1.49407e-08
*RES
1 *2054:Y *1089:10 44.8451 
2 *1089:10 *1419:A2 34.4 
*END

*D_NET *1090 4.31349e-05
*CONN
*I *1425:A1 I *D AOI21x1_ASAP7_75t_R
*I *2055:Y O *D BUFx3_ASAP7_75t_R
*CAP
1 *1425:A1 0
2 *2055:Y 1.32914e-05
3 *1090:8 1.32914e-05
4 *1090:8 *1094:10 0
5 *1425:A2 *1090:8 1.65521e-05
*RES
1 *2055:Y *1090:8 47.3528 
2 *1090:8 *1425:A1 34.4 
*END

*D_NET *1091 8.27429e-05
*CONN
*I *1427:A1 I *D AOI21x1_ASAP7_75t_R
*I *2056:Y O *D BUFx3_ASAP7_75t_R
*CAP
1 *1427:A1 2.29499e-05
2 *2056:Y 6.28385e-06
3 *1091:8 2.92337e-05
4 *198:10 *1091:8 8.71771e-06
5 *198:12 *1091:8 1.34329e-05
6 *1080:8 *1427:A1 2.12481e-06
*RES
1 *2056:Y *1091:8 41.158 
2 *1091:8 *1427:A1 47.7706 
*END

*D_NET *1092 4.2158e-05
*CONN
*I *1429:A2 I *D AOI21x1_ASAP7_75t_R
*I *2057:Y O *D BUFx3_ASAP7_75t_R
*CAP
1 *1429:A2 0
2 *2057:Y 2.08101e-05
3 *1092:10 2.08101e-05
4 *1092:10 *1112:86 0
5 *1432:A2 *1092:10 0
6 *263:23 *1092:10 0
7 *1079:16 *1092:10 5.37866e-07
*RES
1 *2057:Y *1092:10 45.9714 
2 *1092:10 *1429:A2 34.4 
*END

*D_NET *1007 9.42258e-05
*CONN
*I *1515:A2 I *D OA21x2_ASAP7_75t_R
*I *1972:Y O *D BUFx3_ASAP7_75t_R
*CAP
1 *1515:A2 0
2 *1972:Y 8.93219e-06
3 *1007:12 3.7359e-05
4 *1007:8 4.62912e-05
5 *248:10 *1007:12 0
6 *419:12 *1007:12 1.64348e-06
*RES
1 *1972:Y *1007:8 38.1438 
2 *1007:8 *1007:12 47.0478 
3 *1007:12 *1515:A2 17.2 
*END

*D_NET *1093 8.98297e-05
*CONN
*I *1415:A1 I *D AOI21x1_ASAP7_75t_R
*I *2058:Y O *D BUFx3_ASAP7_75t_R
*CAP
1 *1415:A1 1.55251e-05
2 *2058:Y 5.18324e-06
3 *1093:14 3.16449e-05
4 *1093:8 2.1303e-05
5 *828:36 *1415:A1 3.58091e-07
6 *1006:8 *1415:A1 1.24895e-05
7 *1081:42 *1415:A1 0
8 *1081:42 *1093:8 3.32579e-06
*RES
1 *2058:Y *1093:8 38.9053 
2 *1093:8 *1093:14 41.3527 
3 *1093:14 *1415:A1 45.0151 
*END

*D_NET *1008 5.95677e-05
*CONN
*I *1605:A I *D NOR2x2_ASAP7_75t_R
*I *1973:Y O *D BUFx3_ASAP7_75t_R
*CAP
1 *1605:A 0
2 *1973:Y 2.72382e-05
3 *1008:10 2.72382e-05
4 *1008:10 *1113:10 3.76935e-06
5 *1008:10 *1113:16 7.84037e-07
6 *253:16 *1008:10 0
7 *651:10 *1008:10 5.37866e-07
*RES
1 *1973:Y *1008:10 47.3775 
2 *1008:10 *1605:A 34.4 
*END

*D_NET *705 0.000518103
*CONN
*I *1645:B I *D HAxp5_ASAP7_75t_R
*I *1559:A1 I *D AO21x2_ASAP7_75t_R
*I *1824:Y O *D BUFx2_ASAP7_75t_R
*CAP
1 *1645:B 0
2 *1559:A1 0
3 *1824:Y 5.61888e-06
4 *705:67 5.21045e-06
5 *705:59 4.8122e-05
6 *705:44 3.81619e-06
7 *705:36 4.68904e-05
8 *705:26 0.000158279
9 *705:20 8.20803e-05
10 *705:8 1.54062e-05
11 *705:26 *707:32 0
12 *705:26 *853:13 0.000114769
13 *705:26 *861:17 0
14 *705:36 *706:28 5.05399e-06
15 *705:59 *707:32 3.07124e-07
16 *1132:A2 *705:8 6.87987e-06
17 *1212:A *705:44 9.1471e-07
18 *30:16 *705:67 5.16782e-06
19 *48:23 *705:8 1.80596e-06
20 *105:8 *705:67 2.05956e-06
21 *144:14 *705:36 1.67299e-06
22 *348:10 *705:8 0
23 *352:26 *705:20 0
24 *612:30 *705:59 0
25 *612:34 *705:59 0
26 *612:40 *705:36 0
27 *696:36 *705:36 0
28 *696:36 *705:59 2.9066e-08
29 *697:16 *705:20 8.61671e-07
30 *697:38 *705:36 1.31578e-05
*RES
1 *1824:Y *705:8 39.9378 
2 *705:8 *705:20 43.3045 
3 *705:20 *705:26 45.6222 
4 *705:26 *705:36 35.6089 
5 *705:36 *705:44 36.6615 
6 *705:44 *1559:A1 17.2 
7 *705:26 *705:59 41.3713 
8 *705:59 *705:67 37.7878 
9 *705:67 *1645:B 17.2 
*END

*D_NET *1009 1.6518e-05
*CONN
*I *1428:A I *D NOR2x2_ASAP7_75t_R
*I *1974:Y O *D BUFx3_ASAP7_75t_R
*CAP
1 *1428:A 0
2 *1974:Y 5.49572e-06
3 *1009:8 5.49572e-06
4 *1407:A *1009:8 5.52652e-06
5 *264:23 *1009:8 0
*RES
1 *1974:Y *1009:8 38.9053 
2 *1009:8 *1428:A 34.4 
*END

*D_NET *1094 0.000268959
*CONN
*I *1426:A I *D NOR2x2_ASAP7_75t_R
*I *2059:Y O *D BUFx3_ASAP7_75t_R
*CAP
1 *1426:A 6.71992e-06
2 *2059:Y 1.12753e-05
3 *1094:10 7.90751e-05
4 *1094:8 8.36305e-05
5 *1094:10 *1112:10 0
6 *1094:10 *1112:21 0
7 *1404:A2 *1094:8 3.05302e-06
8 *1411:A2 *1094:10 1.34466e-06
9 *1411:B *1094:10 0
10 *199:12 *1094:10 0
11 *201:16 *1094:8 3.13426e-06
12 *201:16 *1094:10 0
13 *521:20 *1094:10 0
14 *521:26 *1094:10 4.86244e-05
15 *523:14 *1094:10 0
16 *524:12 *1094:10 2.65615e-05
17 *526:8 *1094:10 0
18 *527:10 *1094:10 1.12894e-06
19 *997:8 *1094:10 4.41094e-06
20 *1090:8 *1094:10 0
*RES
1 *2059:Y *1094:8 40.2831 
2 *1094:8 *1094:10 61.9483 
3 *1094:10 *1426:A 38.1438 
*END

*D_NET *1010 0.00011515
*CONN
*I *1424:A I *D NOR2x2_ASAP7_75t_R
*I *1975:Y O *D BUFx3_ASAP7_75t_R
*CAP
1 *1424:A 0
2 *1975:Y 0
3 *1010:12 2.30855e-05
4 *1010:6 2.30855e-05
5 *1010:12 *1112:102 7.84037e-07
6 *198:10 *1010:12 2.88634e-05
7 *198:12 *1010:12 3.9332e-05
8 *297:12 *1010:12 0
9 *297:16 *1010:12 0
*RES
1 *1975:Y *1010:6 34.4 
2 *1010:6 *1010:12 41.3311 
3 *1010:12 *1424:A 17.2 
*END

*D_NET *1011 4.02952e-05
*CONN
*I *1422:A I *D NOR2x2_ASAP7_75t_R
*I *1976:Y O *D BUFx3_ASAP7_75t_R
*CAP
1 *1422:A 0
2 *1976:Y 1.71478e-05
3 *1011:10 1.71478e-05
4 *1011:10 *1414:B 5.17782e-06
5 *1415:B *1011:10 0
6 *223:12 *1011:10 8.2174e-07
*RES
1 *1976:Y *1011:10 43.7188 
2 *1011:10 *1422:A 34.4 
*END

*D_NET *1012 0.000233593
*CONN
*I *1418:A I *D NOR2x2_ASAP7_75t_R
*I *1977:Y O *D BUFx3_ASAP7_75t_R
*CAP
1 *1418:A 1.19056e-05
2 *1977:Y 9.95418e-06
3 *1012:10 4.96797e-05
4 *1012:8 4.77283e-05
5 *1418:A *1113:16 3.56648e-06
6 *1418:A *1113:27 7.29792e-06
7 *226:14 *1012:10 6.31894e-06
8 *253:16 *1012:10 1.07299e-05
9 *254:8 *1012:10 0
10 *255:8 *1012:10 2.68933e-07
11 *256:8 *1012:10 3.05118e-08
12 *288:12 *1012:10 8.40773e-05
13 *289:8 *1012:10 0
14 *331:25 *1012:10 0
15 *520:14 *1012:10 0
16 *521:8 *1012:10 0
17 *746:12 *1012:8 2.03526e-06
*RES
1 *1977:Y *1012:8 38.1438 
2 *1012:8 *1012:10 36.6058 
3 *1012:10 *1418:A 42.4224 
*END

*D_NET *1013 1.34617e-05
*CONN
*I *1414:A I *D NOR2x2_ASAP7_75t_R
*I *1978:Y O *D BUFx3_ASAP7_75t_R
*CAP
1 *1414:A 0
2 *1978:Y 6.73084e-06
3 *1013:8 6.73084e-06
4 *223:12 *1013:8 0
*RES
1 *1978:Y *1013:8 40.0317 
2 *1013:8 *1414:A 34.4 
*END

*D_NET *1014 8.18943e-05
*CONN
*I *1577:A I *D OR2x2_ASAP7_75t_R
*I *1702:A I *D HAxp5_ASAP7_75t_R
*I *1979:Y O *D BUFx3_ASAP7_75t_R
*CAP
1 *1577:A 0
2 *1702:A 0
3 *1979:Y 1.00018e-05
4 *1014:25 2.25516e-05
5 *1014:12 2.25516e-05
6 *1014:10 1.00018e-05
7 *79:8 *1014:25 0
8 *235:6 *1014:25 6.81991e-06
9 *276:8 *1014:10 0
10 *277:40 *1014:10 0
11 *277:40 *1014:25 5.23571e-06
12 *625:8 *1014:10 0
13 *631:132 *1014:25 4.73194e-06
*RES
1 *1979:Y *1014:10 39.3835 
2 *1014:10 *1014:12 17.2 
3 *1014:12 *1702:A 17.2 
4 *1014:12 *1014:25 46.9277 
5 *1014:25 *1577:A 17.2 
*END

*D_NET *1015 0.000735751
*CONN
*I *1563:B I *D NOR2x1_ASAP7_75t_R
*I *1564:A2 I *D AO21x2_ASAP7_75t_R
*I *1608:A2 I *D AO21x2_ASAP7_75t_R
*I *1607:B I *D NOR2x1_ASAP7_75t_R
*I *1572:A2 I *D AO21x2_ASAP7_75t_R
*I *1571:B I *D NOR2x1_ASAP7_75t_R
*I *1568:A2 I *D AO21x2_ASAP7_75t_R
*I *1567:B I *D NOR2x2_ASAP7_75t_R
*I *1576:A2 I *D AO21x2_ASAP7_75t_R
*I *1575:B I *D NOR2x1_ASAP7_75t_R
*I *1980:Y O *D BUFx6f_ASAP7_75t_R
*CAP
1 *1563:B 0
2 *1564:A2 3.82092e-06
3 *1608:A2 9.8947e-06
4 *1607:B 4.08223e-06
5 *1572:A2 8.15207e-06
6 *1571:B 0
7 *1568:A2 0
8 *1567:B 0
9 *1576:A2 0
10 *1575:B 0
11 *1980:Y 0
12 *1015:148 2.74949e-05
13 *1015:144 4.38181e-05
14 *1015:120 1.7269e-05
15 *1015:116 3.94483e-05
16 *1015:112 6.05456e-05
17 *1015:94 2.83595e-05
18 *1015:79 3.12702e-05
19 *1015:68 2.68096e-05
20 *1015:66 2.75102e-05
21 *1015:50 1.57133e-05
22 *1015:40 3.35105e-05
23 *1015:30 2.95606e-05
24 *1015:28 7.43045e-05
25 *1015:18 7.98299e-05
26 *1015:6 9.77065e-06
27 *1608:A2 *1106:10 0
28 *1015:40 *1070:21 0
29 *1015:50 *1070:21 9.92908e-06
30 *1015:94 *1053:14 2.96155e-06
31 *1015:116 *1607:A 7.63254e-07
32 *1015:148 *1044:8 1.12894e-06
33 *1518:A2 *1015:40 4.96929e-06
34 *1531:B *1015:112 0
35 *1564:B *1564:A2 6.7842e-07
36 *1568:B *1015:94 2.20493e-06
37 *1576:B *1015:40 2.20493e-06
38 *1656:A *1015:68 5.79724e-07
39 *1656:B *1015:66 2.52755e-07
40 *107:6 *1015:50 1.25483e-05
41 *113:10 *1015:148 0
42 *135:10 *1015:40 1.97656e-05
43 *135:10 *1015:66 1.59615e-06
44 *135:10 *1015:68 2.22736e-06
45 *136:10 *1015:40 1.27747e-05
46 *136:10 *1015:68 0
47 *233:8 *1015:94 6.86929e-06
48 *233:12 *1572:A2 0
49 *277:8 *1015:40 3.73144e-06
50 *277:10 *1015:40 7.04756e-06
51 *277:10 *1015:68 0
52 *598:10 *1015:40 8.60306e-07
53 *602:51 *1015:18 7.48946e-07
54 *605:8 *1015:112 0
55 *605:8 *1015:144 0
56 *609:10 *1015:120 0
57 *612:12 *1015:18 5.08164e-08
58 *637:8 *1015:148 4.1871e-05
59 *639:8 *1015:79 5.67735e-06
60 *641:8 *1572:A2 4.98214e-06
61 *641:8 *1015:94 5.00998e-07
62 *643:10 *1015:50 1.67815e-06
63 *652:8 *1608:A2 0
64 *701:12 *1015:28 0
65 *702:10 *1015:68 0
66 *702:23 *1572:A2 3.875e-06
67 *702:23 *1015:68 0
68 *702:23 *1015:79 0
69 *702:23 *1015:94 6.10236e-07
70 *703:25 *1015:68 1.12894e-06
71 *703:25 *1015:79 4.65366e-06
72 *704:42 *1015:148 8.96443e-08
73 *708:24 *1015:28 0
74 *708:49 *1608:A2 3.63688e-06
75 *708:49 *1015:120 1.98904e-06
76 *857:27 *1015:79 0
*RES
1 *1980:Y *1015:6 34.4 
2 *1015:6 *1015:18 42.8155 
3 *1015:18 *1015:28 42.3864 
4 *1015:28 *1015:30 17.2 
5 *1015:30 *1015:40 34.4881 
6 *1015:40 *1015:50 47.0977 
7 *1015:50 *1575:B 17.2 
8 *1015:40 *1576:A2 17.2 
9 *1015:30 *1015:66 39.2134 
10 *1015:66 *1015:68 11.2633 
11 *1015:68 *1567:B 34.4 
12 *1015:68 *1015:79 27.337 
13 *1015:79 *1568:A2 17.2 
14 *1015:79 *1015:94 30.6556 
15 *1015:94 *1571:B 34.4 
16 *1015:94 *1572:A2 43.4107 
17 *1015:6 *1015:112 2.81583 
18 *1015:112 *1015:116 41.2671 
19 *1015:116 *1015:120 20.0158 
20 *1015:120 *1607:B 38.1438 
21 *1015:120 *1608:A2 43.4107 
22 *1015:112 *1015:144 29.8977 
23 *1015:144 *1015:148 38.0371 
24 *1015:148 *1564:A2 36.5393 
25 *1015:144 *1563:B 17.2 
*END

*D_NET *1016 0.000373426
*CONN
*I *1604:A2 I *D AO21x1_ASAP7_75t_R
*I *1392:A2 I *D AO21x1_ASAP7_75t_R
*I *1394:A2 I *D AO21x1_ASAP7_75t_R
*I *1396:A2 I *D AO21x1_ASAP7_75t_R
*I *1398:A2 I *D AO21x1_ASAP7_75t_R
*I *1397:B I *D NOR2x1_ASAP7_75t_R
*I *1981:Y O *D BUFx3_ASAP7_75t_R
*CAP
1 *1604:A2 0
2 *1392:A2 0
3 *1394:A2 0
4 *1396:A2 0
5 *1398:A2 1.39436e-05
6 *1397:B 0
7 *1981:Y 0
8 *1016:81 7.7746e-06
9 *1016:61 4.01227e-06
10 *1016:48 1.18287e-06
11 *1016:24 2.84519e-05
12 *1016:18 5.2048e-05
13 *1016:16 6.64052e-05
14 *1016:10 7.15539e-05
15 *1016:4 5.32925e-05
16 *1016:16 *1391:A2 2.98961e-07
17 *1016:16 *1026:16 0
18 *1016:16 *1027:28 6.85833e-07
19 *1016:16 *1027:30 7.85549e-06
20 *1016:18 *1027:30 9.08627e-06
21 *1016:18 *1027:38 1.54271e-05
22 *1016:24 *1054:8 5.97901e-06
23 *1392:A1 *1016:16 4.39947e-06
24 *1981:A *1016:10 1.51653e-06
25 *199:12 *1016:10 2.83874e-07
26 *228:8 *1398:A2 2.20493e-06
27 *264:10 *1398:A2 0
28 *264:10 *1016:24 0
29 *264:10 *1016:48 1.23016e-06
30 *298:10 *1016:10 0
31 *298:10 *1016:16 0
32 *298:10 *1016:61 1.18898e-06
33 *507:23 *1016:81 1.3295e-05
34 *513:8 *1016:16 2.1664e-06
35 *516:8 *1398:A2 5.67735e-06
36 *740:25 *1398:A2 2.43534e-06
37 *740:25 *1016:24 6.72332e-07
38 *740:25 *1016:48 0
39 *742:8 *1016:61 3.58577e-07
*RES
1 *1981:Y *1016:4 17.2 
2 *1016:4 *1016:10 39.3546 
3 *1016:10 *1016:16 33.4183 
4 *1016:16 *1016:18 17.315 
5 *1016:18 *1016:24 26.7927 
6 *1016:24 *1397:B 34.4 
7 *1016:24 *1398:A2 47.2678 
8 *1016:18 *1016:48 35.8079 
9 *1016:48 *1396:A2 17.2 
10 *1016:16 *1016:61 36.8776 
11 *1016:61 *1394:A2 17.2 
12 *1016:10 *1392:A2 34.4 
13 *1016:4 *1016:81 39.975 
14 *1016:81 *1604:A2 17.2 
*END

*D_NET *1017 0.000520971
*CONN
*I *1501:B I *D NOR2x1_ASAP7_75t_R
*I *1511:A2 I *D AO21x2_ASAP7_75t_R
*I *1510:B I *D NOR2x1_ASAP7_75t_R
*I *1297:A2 I *D AO21x2_ASAP7_75t_R
*I *1507:A2 I *D AO21x2_ASAP7_75t_R
*I *1506:B I *D NOR2x1_ASAP7_75t_R
*I *1296:B I *D NOR2x1_ASAP7_75t_R
*I *1502:A2 I *D AO21x2_ASAP7_75t_R
*I *1595:B I *D NOR2x1_ASAP7_75t_R
*I *1596:A2 I *D AO21x2_ASAP7_75t_R
*I *1982:Y O *D BUFx6f_ASAP7_75t_R
*CAP
1 *1501:B 2.54768e-05
2 *1511:A2 3.21113e-06
3 *1510:B 1.0579e-05
4 *1297:A2 0
5 *1507:A2 1.8529e-06
6 *1506:B 0
7 *1296:B 2.63847e-05
8 *1502:A2 0
9 *1595:B 0
10 *1596:A2 0
11 *1982:Y 0
12 *1017:93 2.50739e-05
13 *1017:80 2.6914e-05
14 *1017:71 1.74831e-05
15 *1017:69 3.47563e-05
16 *1017:49 2.89612e-05
17 *1017:47 3.69833e-05
18 *1017:38 9.04566e-06
19 *1017:22 1.41798e-05
20 *1017:14 2.09243e-05
21 *1017:12 4.4752e-05
22 *1017:10 3.39915e-05
23 *1017:4 3.0157e-05
24 *1296:B *1296:A 2.12481e-06
25 *1296:B *1098:10 8.06799e-07
26 *1510:B *1511:A1 6.7842e-07
27 *1510:B *1095:20 2.20493e-06
28 *1511:A2 *1511:A1 1.35684e-06
29 *1017:10 *1098:10 0
30 *1017:22 *1595:A 5.49212e-07
31 *1017:38 *1595:A 0
32 *1017:69 *1095:12 0
33 *1017:69 *1098:10 2.83874e-07
34 *1017:93 *1061:53 5.79724e-07
35 *1017:93 *1095:12 8.2174e-07
36 *1017:93 *1099:8 2.0153e-05
37 *1507:B *1017:80 7.46759e-06
38 *1511:B *1510:B 1.62312e-05
39 *1511:B *1511:A2 1.08167e-05
40 *1596:B *1017:22 6.7842e-07
41 *1982:A *1017:12 5.17782e-06
42 *1982:A *1017:14 3.56648e-06
43 *150:18 *1017:38 0
44 *185:10 *1017:22 0
45 *189:8 *1017:22 0
46 *207:10 *1017:22 0
47 *207:10 *1017:38 0
48 *220:8 *1017:93 0
49 *305:14 *1017:22 2.96818e-06
50 *459:51 *1017:22 8.33296e-06
51 *459:51 *1017:38 1.00883e-05
52 *581:14 *1510:B 5.94108e-06
53 *590:8 *1017:10 1.53071e-05
54 *592:8 *1017:69 0
55 *594:8 *1017:93 8.06799e-07
56 *646:8 *1017:22 1.33022e-05
*RES
1 *1982:Y *1017:4 17.2 
2 *1017:4 *1017:10 39.4685 
3 *1017:10 *1017:12 17.6492 
4 *1017:12 *1017:14 3.74377 
5 *1017:14 *1017:22 47.8026 
6 *1017:22 *1596:A2 17.2 
7 *1017:14 *1595:B 17.2 
8 *1017:12 *1017:38 43.4107 
9 *1017:38 *1502:A2 17.2 
10 *1017:4 *1017:47 27.3617 
11 *1017:47 *1017:49 1.6895 
12 *1017:49 *1296:B 49.9949 
13 *1017:49 *1506:B 34.4 
14 *1017:47 *1017:69 6.75799 
15 *1017:69 *1017:71 17.2 
16 *1017:71 *1507:A2 18.8045 
17 *1017:71 *1017:80 10.6965 
18 *1017:80 *1297:A2 17.2 
19 *1017:80 *1017:93 44.4803 
20 *1017:93 *1510:B 26.292 
21 *1017:93 *1511:A2 20.409 
22 *1017:69 *1501:B 49.4601 
*END

*D_NET *706 0.000692259
*CONN
*I *1555:A2 I *D AO21x2_ASAP7_75t_R
*I *1617:B I *D HAxp5_ASAP7_75t_R
*I *1825:Y O *D BUFx2_ASAP7_75t_R
*CAP
1 *1555:A2 3.03471e-06
2 *1617:B 1.90499e-05
3 *1825:Y 1.36874e-05
4 *706:38 2.6091e-05
5 *706:28 5.55083e-05
6 *706:20 6.0261e-05
7 *706:8 2.24465e-05
8 *1617:B *707:46 0
9 *706:8 *799:16 0
10 *706:8 *859:13 1.26923e-05
11 *706:28 *853:13 0.000296989
12 *706:28 *983:24 0.000149995
13 *1132:A2 *706:8 9.25388e-06
14 *144:14 *706:38 1.09596e-06
15 *612:34 *706:38 0
16 *612:66 *1617:B 2.25787e-06
17 *612:76 *1617:B 0
18 *633:12 *1617:B 8.82188e-06
19 *696:24 *706:28 0
20 *696:36 *706:28 0
21 *697:22 *706:20 6.02153e-06
22 *697:28 *706:28 0
23 *705:36 *706:28 5.05399e-06
*RES
1 *1825:Y *706:8 46.8835 
2 *706:8 *706:20 43.0956 
3 *706:20 *706:28 47.8411 
4 *706:28 *706:38 42.1872 
5 *706:38 *1617:B 48.1302 
6 *706:38 *1555:A2 36.1267 
*END

*D_NET *1019 0.000693293
*CONN
*I *1353:B I *D NAND2x1_ASAP7_75t_R
*I *1354:A2 I *D OA21x2_ASAP7_75t_R
*I *1322:B I *D NAND2x1_ASAP7_75t_R
*I *1323:A2 I *D OA21x2_ASAP7_75t_R
*I *1307:A2 I *D OA21x2_ASAP7_75t_R
*I *1306:B I *D NAND2x1_ASAP7_75t_R
*I *1332:B I *D NOR2x1_ASAP7_75t_R
*I *1331:B I *D AND2x2_ASAP7_75t_R
*I *1984:Y O *D BUFx3_ASAP7_75t_R
*CAP
1 *1353:B 1.17959e-05
2 *1354:A2 5.1055e-06
3 *1322:B 0
4 *1323:A2 0
5 *1307:A2 0
6 *1306:B 3.79623e-06
7 *1332:B 0
8 *1331:B 2.06318e-05
9 *1984:Y 0
10 *1019:94 3.32004e-05
11 *1019:83 1.85584e-05
12 *1019:67 1.41141e-05
13 *1019:48 3.79456e-05
14 *1019:28 2.71665e-05
15 *1019:26 5.70296e-05
16 *1019:22 4.44905e-05
17 *1019:14 2.92316e-05
18 *1019:8 5.49694e-05
19 *1019:6 3.75091e-05
20 *1019:8 *1071:14 4.26769e-06
21 *1019:14 *1112:42 1.14301e-05
22 *1019:67 *1104:8 2.01457e-05
23 *1323:B *1019:14 1.95129e-06
24 *1354:A1 *1019:8 2.35211e-06
25 *1611:B *1019:8 1.54556e-05
26 *1671:B *1019:8 0
27 *2036:A *1019:8 0
28 *6:8 *1019:48 0
29 *13:8 *1353:B 0
30 *13:14 *1354:A2 1.26378e-06
31 *15:12 *1353:B 1.36155e-06
32 *44:8 *1019:48 2.70427e-06
33 *83:17 *1019:28 2.39014e-05
34 *83:17 *1019:48 6.97416e-06
35 *84:8 *1019:26 1.59615e-06
36 *84:10 *1019:22 0
37 *84:10 *1019:28 0
38 *84:10 *1019:48 0
39 *174:31 *1019:8 0
40 *174:31 *1019:14 0
41 *175:10 *1019:8 0
42 *176:10 *1019:8 2.33715e-05
43 *198:10 *1019:94 5.52807e-07
44 *263:10 *1331:B 0
45 *263:10 *1019:28 0
46 *263:10 *1019:48 0
47 *429:20 *1019:8 0
48 *430:10 *1019:8 0
49 *431:12 *1019:8 1.98958e-05
50 *467:8 *1019:48 1.22048e-05
51 *467:8 *1019:67 1.12851e-05
52 *472:10 *1019:14 2.32871e-05
53 *472:10 *1019:83 6.7842e-07
54 *472:10 *1019:94 1.44639e-06
55 *485:8 *1353:B 2.36328e-05
56 *485:8 *1019:8 0
57 *689:12 *1019:83 5.62196e-06
58 *689:12 *1019:94 2.61935e-05
59 *717:32 *1019:8 2.41931e-06
60 *794:12 *1331:B 5.17782e-06
61 *794:23 *1331:B 2.09348e-05
62 *794:23 *1019:28 2.76426e-05
*RES
1 *1984:Y *1019:6 34.4 
2 *1019:6 *1019:8 39.4216 
3 *1019:8 *1019:14 31.1374 
4 *1019:14 *1019:22 43.0989 
5 *1019:22 *1019:26 34.8492 
6 *1019:26 *1019:28 11.2633 
7 *1019:28 *1331:B 47.4625 
8 *1019:28 *1332:B 34.4 
9 *1019:26 *1019:48 17.4581 
10 *1019:48 *1306:B 36.5393 
11 *1019:48 *1019:67 46.5913 
12 *1019:67 *1307:A2 34.4 
13 *1019:14 *1323:A2 17.2 
14 *1019:8 *1019:83 18.8045 
15 *1019:83 *1322:B 17.2 
16 *1019:83 *1019:94 31.9804 
17 *1019:94 *1354:A2 37.609 
18 *1019:94 *1353:B 45.6066 
*END

*D_NET *1018 0.000551801
*CONN
*I *1261:A2 I *D OA21x2_ASAP7_75t_R
*I *1260:B I *D NAND2x1_ASAP7_75t_R
*I *1420:B I *D NAND2x1_ASAP7_75t_R
*I *1421:A2 I *D OA21x2_ASAP7_75t_R
*I *1416:B I *D NAND2x1_ASAP7_75t_R
*I *1417:A2 I *D OA21x2_ASAP7_75t_R
*I *1579:B I *D NAND2x1_ASAP7_75t_R
*I *1580:A2 I *D OA21x2_ASAP7_75t_R
*I *1983:Y O *D BUFx6f_ASAP7_75t_R
*CAP
1 *1261:A2 2.37689e-06
2 *1260:B 0
3 *1420:B 0
4 *1421:A2 6.20528e-06
5 *1416:B 1.46258e-06
6 *1417:A2 0
7 *1579:B 0
8 *1580:A2 0
9 *1983:Y 0
10 *1018:75 8.53031e-06
11 *1018:64 1.31361e-05
12 *1018:51 3.08056e-06
13 *1018:38 2.03199e-05
14 *1018:30 3.73403e-05
15 *1018:28 3.37008e-05
16 *1018:26 3.58224e-05
17 *1018:20 5.11105e-05
18 *1018:16 4.03546e-05
19 *1018:10 3.98401e-05
20 *1018:6 8.33366e-05
21 *1018:4 6.34527e-05
22 *1018:6 *1276:A 2.11853e-06
23 *1018:10 *1070:8 2.74257e-06
24 *1018:16 *1260:A 2.20493e-06
25 *1018:20 *1069:8 2.45021e-07
26 *1018:26 *1069:8 1.49407e-08
27 *1580:A1 *1018:38 6.58658e-06
28 *16:6 *1261:A2 6.02341e-06
29 *18:8 *1018:16 2.59962e-07
30 *19:6 *1421:A2 1.03895e-05
31 *19:12 *1416:B 3.68287e-06
32 *19:12 *1421:A2 1.08167e-05
33 *140:23 *1018:64 1.18804e-05
34 *436:10 *1018:16 5.08156e-06
35 *533:10 *1421:A2 5.51397e-07
36 *533:10 *1018:64 2.79508e-06
37 *535:8 *1018:26 4.28784e-06
38 *645:8 *1018:38 1.34485e-05
39 *645:8 *1018:51 4.97876e-07
40 *709:8 *1018:20 0
41 *709:16 *1018:20 0
42 *709:33 *1018:20 0
43 *710:16 *1018:26 1.02633e-06
44 *710:16 *1018:28 2.10815e-06
45 *710:16 *1018:30 4.10534e-06
46 *711:28 *1018:16 1.49407e-08
47 *761:18 *1018:26 1.46827e-05
48 *783:12 *1018:20 2.61304e-06
49 *783:12 *1018:26 3.88042e-07
50 *863:25 *1018:20 1.17606e-06
51 *864:25 *1018:26 1.98924e-06
52 *882:25 *1018:26 0
*RES
1 *1983:Y *1018:4 17.2 
2 *1018:4 *1018:6 37.9726 
3 *1018:6 *1018:10 32.4055 
4 *1018:10 *1018:16 30.0678 
5 *1018:16 *1018:20 33.5318 
6 *1018:20 *1018:26 31.9165 
7 *1018:26 *1018:28 2.38082 
8 *1018:28 *1018:30 6.2767 
9 *1018:30 *1018:38 48.3103 
10 *1018:38 *1580:A2 17.2 
11 *1018:30 *1018:51 36.1267 
12 *1018:51 *1579:B 17.2 
13 *1018:28 *1018:64 46.2353 
14 *1018:64 *1417:A2 17.2 
15 *1018:26 *1018:75 35.057 
16 *1018:75 *1416:B 18.2696 
17 *1018:75 *1421:A2 23.6179 
18 *1018:20 *1420:B 34.4 
19 *1018:16 *1260:B 17.2 
20 *1018:10 *1261:A2 36.0045 
*END

*D_NET *1021 0.000429042
*CONN
*I *1240:B I *D AND2x2_ASAP7_75t_R
*I *1274:B I *D AND2x2_ASAP7_75t_R
*I *1364:B I *D AND2x2_ASAP7_75t_R
*I *1356:B I *D AND2x2_ASAP7_75t_R
*I *1271:B I *D AND2x2_ASAP7_75t_R
*I *1986:Y O *D BUFx3_ASAP7_75t_R
*CAP
1 *1240:B 1.59107e-05
2 *1274:B 0
3 *1364:B 0
4 *1356:B 0
5 *1271:B 1.84852e-05
6 *1986:Y 1.53569e-05
7 *1021:53 6.76839e-05
8 *1021:46 8.07689e-05
9 *1021:44 4.96193e-05
10 *1021:31 2.71163e-05
11 *1021:16 5.22274e-05
12 *1021:10 5.55918e-05
13 *1271:A *1271:B 5.34278e-06
14 *1356:A *1021:44 5.0551e-07
15 *1934:A *1021:53 2.12481e-06
16 *418:8 *1021:31 0
17 *440:8 *1271:B 3.95845e-06
18 *443:10 *1240:B 9.08513e-06
19 *487:8 *1021:44 5.62196e-06
20 *487:10 *1021:31 1.81378e-06
21 *767:16 *1240:B 5.85387e-06
22 *768:16 *1021:53 3.46317e-06
23 *769:23 *1021:31 0
24 *769:23 *1021:44 8.51183e-06
*RES
1 *1986:Y *1021:10 41.5228 
2 *1021:10 *1021:16 49.9099 
3 *1021:16 *1271:B 44.1969 
4 *1021:10 *1021:31 23.3948 
5 *1021:31 *1356:B 17.2 
6 *1021:31 *1021:44 47.0411 
7 *1021:44 *1021:46 16.0448 
8 *1021:46 *1364:B 17.2 
9 *1021:46 *1021:53 31.0198 
10 *1021:53 *1274:B 17.2 
11 *1021:53 *1240:B 27.3617 
*END

*D_NET *1023 0.000332018
*CONN
*I *1238:B I *D AND2x2_ASAP7_75t_R
*I *1273:B I *D AND2x2_ASAP7_75t_R
*I *1363:B I *D AND2x2_ASAP7_75t_R
*I *1355:B I *D AND2x2_ASAP7_75t_R
*I *1270:B I *D AND2x2_ASAP7_75t_R
*I *1988:Y O *D BUFx3_ASAP7_75t_R
*CAP
1 *1238:B 1.54237e-05
2 *1273:B 0
3 *1363:B 0
4 *1355:B 0
5 *1270:B 7.298e-06
6 *1988:Y 0
7 *1023:65 1.54237e-05
8 *1023:63 3.50769e-05
9 *1023:57 3.80343e-05
10 *1023:44 2.39223e-05
11 *1023:33 2.09649e-05
12 *1023:31 4.56297e-05
13 *1023:25 4.75559e-05
14 *1023:12 2.90761e-05
15 *1023:4 2.37043e-05
16 *1270:A *1270:B 5.34278e-06
17 *1270:A *1023:12 0
18 *1355:A *1023:44 6.02591e-06
19 *318:8 *1023:12 0
20 *416:10 *1023:12 1.89962e-06
21 *416:16 *1023:12 1.89962e-06
22 *418:8 *1023:12 0
23 *418:8 *1023:25 0
24 *769:23 *1023:31 4.66556e-06
25 *776:16 *1238:B 5.34278e-06
26 *776:16 *1023:63 4.73194e-06
*RES
1 *1988:Y *1023:4 17.2 
2 *1023:4 *1023:12 49.5205 
3 *1023:12 *1270:B 22.5483 
4 *1023:4 *1023:25 35.6202 
5 *1023:25 *1023:31 36.8924 
6 *1023:31 *1023:33 17.2 
7 *1023:33 *1355:B 17.2 
8 *1023:33 *1023:44 13.3706 
9 *1023:44 *1363:B 17.2 
10 *1023:44 *1023:57 36.1267 
11 *1023:57 *1023:63 33.5134 
12 *1023:63 *1023:65 17.2 
13 *1023:65 *1273:B 17.2 
14 *1023:65 *1238:B 27.3617 
*END

*D_NET *1024 0.000428881
*CONN
*I *1180:B I *D AND2x2_ASAP7_75t_R
*I *1312:B I *D AND2x2_ASAP7_75t_R
*I *1140:B I *D AND2x2_ASAP7_75t_R
*I *1300:B I *D AND2x2_ASAP7_75t_R
*I *1989:Y O *D BUFx3_ASAP7_75t_R
*CAP
1 *1180:B 2.31084e-06
2 *1312:B 1.94139e-05
3 *1140:B 1.07272e-05
4 *1300:B 3.79611e-05
5 *1989:Y 0
6 *1024:29 3.01411e-05
7 *1024:27 3.67107e-05
8 *1024:23 6.3055e-05
9 *1024:10 4.95497e-05
10 *1024:4 3.5622e-05
11 *1140:B *1025:52 5.24987e-06
12 *1300:B *1025:14 8.38704e-06
13 *1312:B *1138:B 6.7842e-07
14 *1024:27 *1025:29 5.54763e-05
15 *1024:27 *1025:46 3.27388e-05
16 *1140:A *1140:B 2.20493e-06
17 *341:32 *1024:27 0
18 *344:18 *1024:27 0
19 *351:35 *1024:23 0
20 *354:20 *1024:10 2.98814e-07
21 *785:14 *1140:B 1.51713e-05
22 *785:14 *1312:B 4.23589e-06
23 *787:14 *1180:B 3.68287e-06
24 *787:14 *1024:23 9.9223e-06
25 *791:16 *1300:B 5.34278e-06
26 *795:8 *1140:B 0
27 *795:8 *1312:B 0
28 *830:10 *1024:10 0
*RES
1 *1989:Y *1024:4 17.2 
2 *1024:4 *1024:10 41.158 
3 *1024:10 *1300:B 42.8716 
4 *1024:4 *1024:23 29.8392 
5 *1024:23 *1024:27 35.8137 
6 *1024:27 *1024:29 17.2 
7 *1024:29 *1140:B 44.142 
8 *1024:29 *1312:B 46.5328 
9 *1024:23 *1180:B 36.3144 
*END

*D_NET *1025 0.000570956
*CONN
*I *1299:B I *D AND2x2_ASAP7_75t_R
*I *1138:B I *D AND2x2_ASAP7_75t_R
*I *1311:B I *D AND2x2_ASAP7_75t_R
*I *1268:A2 I *D AO21x1_ASAP7_75t_R
*I *1179:B I *D AND2x2_ASAP7_75t_R
*I *1990:Y O *D BUFx3_ASAP7_75t_R
*CAP
1 *1299:B 1.43484e-05
2 *1138:B 1.19582e-05
3 *1311:B 0
4 *1268:A2 0
5 *1179:B 0
6 *1990:Y 1.73272e-06
7 *1025:74 4.44524e-05
8 *1025:52 3.45443e-05
9 *1025:46 5.7189e-05
10 *1025:37 6.89413e-06
11 *1025:29 4.25321e-05
12 *1025:14 8.35692e-05
13 *1025:8 9.04545e-05
14 *1140:A *1025:52 7.58265e-07
15 *1140:B *1025:52 5.24987e-06
16 *1300:B *1025:14 8.38704e-06
17 *1312:B *1138:B 6.7842e-07
18 *279:10 *1025:52 2.9732e-06
19 *352:18 *1025:74 2.9388e-05
20 *353:8 *1025:52 0
21 *354:20 *1025:74 5.15753e-06
22 *355:10 *1025:52 2.20493e-06
23 *382:8 *1025:29 2.33013e-06
24 *631:102 *1025:74 0
25 *707:8 *1299:B 0
26 *785:14 *1025:52 4.04904e-06
27 *791:16 *1299:B 1.09069e-05
28 *796:20 *1025:29 1.05112e-06
29 *800:16 *1299:B 1.11529e-05
30 *830:10 *1025:8 3.2842e-06
31 *830:10 *1025:14 7.49412e-06
32 *1024:27 *1025:29 5.54763e-05
33 *1024:27 *1025:46 3.27388e-05
*RES
1 *1990:Y *1025:8 35.6202 
2 *1025:8 *1025:14 43.4543 
3 *1025:14 *1179:B 17.2 
4 *1025:14 *1025:29 47.7149 
5 *1025:29 *1025:37 37.8162 
6 *1025:37 *1268:A2 17.2 
7 *1025:29 *1025:46 22.8274 
8 *1025:46 *1025:52 37.3198 
9 *1025:52 *1311:B 17.2 
10 *1025:46 *1138:B 39.364 
11 *1025:8 *1025:74 48.4685 
12 *1025:74 *1299:B 44.8362 
*END

*D_NET *1026 0.000373381
*CONN
*I *1391:A2 I *D OA21x2_ASAP7_75t_R
*I *1393:A2 I *D OA21x2_ASAP7_75t_R
*I *1395:A2 I *D OA21x2_ASAP7_75t_R
*I *1991:Y O *D BUFx3_ASAP7_75t_R
*CAP
1 *1391:A2 1.14959e-05
2 *1393:A2 0
3 *1395:A2 0
4 *1991:Y 3.44707e-05
5 *1026:44 7.78383e-06
6 *1026:38 3.73617e-05
7 *1026:30 4.79294e-05
8 *1026:24 3.67425e-05
9 *1026:16 4.36876e-05
10 *1026:8 4.82715e-05
11 *1026:44 *1027:38 4.74375e-07
12 *1026:44 *1062:8 5.16952e-06
13 *1378:B *1026:8 5.09299e-06
14 *1378:B *1026:16 1.70684e-06
15 *1392:A1 *1391:A2 0
16 *87:6 *1026:38 1.46869e-05
17 *87:12 *1026:38 8.20723e-06
18 *179:10 *1026:16 6.33863e-07
19 *179:10 *1026:24 0
20 *505:10 *1026:30 2.81851e-06
21 *505:10 *1026:38 4.90042e-07
22 *505:14 *1026:24 3.51244e-05
23 *505:14 *1026:30 3.91501e-06
24 *507:23 *1026:16 0
25 *513:8 *1026:16 7.84037e-07
26 *514:10 *1026:24 1.95129e-06
27 *733:21 *1026:38 1.65979e-06
28 *734:25 *1391:A2 2.6095e-06
29 *734:25 *1026:24 1.70466e-06
30 *742:8 *1026:38 2.25481e-06
31 *743:25 *1026:24 1.60548e-05
32 *1016:16 *1391:A2 2.98961e-07
33 *1016:16 *1026:16 0
*RES
1 *1991:Y *1026:8 48.8403 
2 *1026:8 *1026:16 44.2819 
3 *1026:16 *1026:24 49.1237 
4 *1026:24 *1026:30 28.0949 
5 *1026:30 *1026:38 49.6302 
6 *1026:38 *1026:44 40.0317 
7 *1026:44 *1395:A2 17.2 
8 *1026:30 *1393:A2 17.2 
9 *1026:16 *1391:A2 42.6208 
*END

*D_NET *1027 0.00033759
*CONN
*I *1603:A1 I *D OA21x2_ASAP7_75t_R
*I *1391:A1 I *D OA21x2_ASAP7_75t_R
*I *1393:A1 I *D OA21x2_ASAP7_75t_R
*I *1395:A1 I *D OA21x2_ASAP7_75t_R
*I *1992:Y O *D BUFx3_ASAP7_75t_R
*CAP
1 *1603:A1 6.28873e-06
2 *1391:A1 0
3 *1393:A1 0
4 *1395:A1 0
5 *1992:Y 0
6 *1027:62 4.04594e-06
7 *1027:49 7.15115e-06
8 *1027:38 1.87928e-05
9 *1027:30 4.05715e-05
10 *1027:28 8.45303e-05
11 *1027:18 7.71302e-05
12 *1027:6 1.75622e-05
13 *1027:49 *1062:8 5.67747e-07
14 *502:12 *1027:18 0
15 *502:23 *1603:A1 8.30938e-06
16 *502:23 *1027:18 4.97654e-06
17 *742:8 *1027:49 1.62477e-05
18 *746:26 *1603:A1 0
19 *746:26 *1027:18 0
20 *747:41 *1027:28 1.78867e-05
21 *1016:16 *1027:28 6.85833e-07
22 *1016:16 *1027:30 7.85549e-06
23 *1016:18 *1027:30 9.08627e-06
24 *1016:18 *1027:38 1.54271e-05
25 *1026:44 *1027:38 4.74375e-07
*RES
1 *1992:Y *1027:6 34.4 
2 *1027:6 *1027:18 46.0722 
3 *1027:18 *1027:28 39.5582 
4 *1027:28 *1027:30 6.92602 
5 *1027:30 *1027:38 42.2723 
6 *1027:38 *1395:A1 17.2 
7 *1027:30 *1027:49 40.1255 
8 *1027:49 *1393:A1 17.2 
9 *1027:28 *1027:62 36.1267 
10 *1027:62 *1391:A1 17.2 
11 *1027:6 *1603:A1 38.8486 
*END

*D_NET *1028 4.47244e-05
*CONN
*I *1207:B I *D AOI21x1_ASAP7_75t_R
*I *1993:Y O *D BUFx3_ASAP7_75t_R
*CAP
1 *1207:B 2.13866e-05
2 *1993:Y 2.13866e-05
3 *1207:B *1207:A2 1.95129e-06
*RES
1 *1993:Y *1207:B 46.701 
*END

*D_NET *1029 5.02565e-05
*CONN
*I *1207:A2 I *D AOI21x1_ASAP7_75t_R
*I *1994:Y O *D BUFx3_ASAP7_75t_R
*CAP
1 *1207:A2 6.22912e-06
2 *1994:Y 1.16473e-05
3 *1029:10 1.78765e-05
4 *1207:B *1207:A2 1.95129e-06
5 *1208:B *1029:10 2.28976e-06
6 *1993:A *1029:10 5.37866e-07
7 *391:10 *1029:10 4.35576e-08
8 *398:8 *1029:10 9.68107e-06
*RES
1 *1994:Y *1029:10 42.7625 
2 *1029:10 *1207:A2 38.1438 
*END

*D_NET *680 1.12825e-05
*CONN
*I *1324:A I *D INVx2_ASAP7_75t_R
*I *1413:Y O *D BUFx3_ASAP7_75t_R
*CAP
1 *1324:A 0
2 *1413:Y 5.287e-06
3 *680:8 5.287e-06
4 *137:8 *680:8 7.08455e-07
5 *156:23 *680:8 0
*RES
1 *1413:Y *680:8 37.779 
2 *680:8 *1324:A 34.4 
*END

*D_NET *707 0.000345609
*CONN
*I *1535:A1 I *D AO21x2_ASAP7_75t_R
*I *1655:A I *D HAxp5_ASAP7_75t_R
*I *1826:Y O *D BUFx2_ASAP7_75t_R
*CAP
1 *1535:A1 0
2 *1655:A 0
3 *1826:Y 1.86198e-05
4 *707:46 4.08106e-05
5 *707:40 4.66496e-05
6 *707:32 7.9987e-05
7 *707:20 8.18531e-05
8 *707:8 2.63249e-05
9 *707:8 *1299:B 0
10 *707:8 *800:16 2.0588e-06
11 *707:32 *852:13 0
12 *1527:B *707:46 4.3319e-06
13 *1617:B *707:46 0
14 *30:10 *707:46 3.55524e-06
15 *144:8 *707:46 0
16 *315:10 *707:40 8.96443e-08
17 *315:10 *707:46 8.96443e-08
18 *608:6 *707:46 5.34278e-06
19 *612:34 *707:40 0
20 *612:94 *707:46 3.45037e-05
21 *624:20 *707:32 0
22 *631:37 *707:20 1.08558e-06
23 *633:12 *707:46 0
24 *705:26 *707:32 0
25 *705:59 *707:32 3.07124e-07
*RES
1 *1826:Y *707:8 49.1362 
2 *707:8 *707:20 42.7973 
3 *707:20 *707:32 48.0026 
4 *707:32 *707:40 30.981 
5 *707:40 *707:46 44.8198 
6 *707:46 *1655:A 17.2 
7 *707:40 *1535:A1 34.4 
*END

*D_NET *1030 2.314e-05
*CONN
*I *1207:A1 I *D AOI21x1_ASAP7_75t_R
*I *1995:Y O *D BUFx3_ASAP7_75t_R
*CAP
1 *1207:A1 1.157e-05
2 *1995:Y 1.157e-05
*RES
1 *1995:Y *1207:A1 40.2831 
*END

*D_NET *1031 0.000173149
*CONN
*I *1160:A1 I *D AOI22x1_ASAP7_75t_R
*I *1158:A1 I *D AO22x2_ASAP7_75t_R
*I *1996:Y O *D BUFx3_ASAP7_75t_R
*CAP
1 *1160:A1 1.40582e-05
2 *1158:A1 1.20911e-05
3 *1996:Y 4.15277e-06
4 *1031:10 4.67667e-05
5 *1031:8 2.47701e-05
6 *1031:10 *1034:8 0
7 *1158:B2 *1158:A1 5.37866e-07
8 *1158:B2 *1031:10 3.13755e-07
9 *1160:B1 *1160:A1 2.20493e-06
10 *356:49 *1031:10 0
11 *358:12 *1031:10 5.67723e-07
12 *364:36 *1158:A1 1.97928e-05
13 *364:36 *1031:10 6.4295e-06
14 *368:6 *1160:A1 1.95129e-06
15 *368:21 *1160:A1 1.32074e-05
16 *370:8 *1031:10 1.35961e-06
17 *373:8 *1158:A1 1.23531e-05
18 *373:12 *1158:A1 1.25925e-05
*RES
1 *1996:Y *1031:8 36.0045 
2 *1031:8 *1031:10 15.2055 
3 *1031:10 *1158:A1 46.1415 
4 *1031:10 *1160:A1 43.492 
*END

*D_NET *1032 7.8986e-05
*CONN
*I *1248:A1 I *D OAI22x1_ASAP7_75t_R
*I *1997:Y O *D BUFx3_ASAP7_75t_R
*CAP
1 *1248:A1 7.45778e-06
2 *1997:Y 2.16448e-05
3 *1032:8 2.91026e-05
4 *420:6 *1032:8 1.45556e-05
5 *421:22 *1032:8 6.22522e-06
*RES
1 *1997:Y *1032:8 44.5617 
2 *1032:8 *1248:A1 40.0317 
*END

*D_NET *1033 5.36491e-05
*CONN
*I *1200:A I *D NOR2x1_ASAP7_75t_R
*I *1998:Y O *D BUFx3_ASAP7_75t_R
*CAP
1 *1200:A 1.99922e-05
2 *1998:Y 1.99922e-05
3 *96:10 *1200:A 4.57952e-06
4 *398:112 *1200:A 5.19475e-06
5 *542:12 *1200:A 3.89037e-06
*RES
1 *1998:Y *1200:A 47.7706 
*END

*D_NET *1034 4.21895e-05
*CONN
*I *1155:A1 I *D OAI21x1_ASAP7_75t_R
*I *1999:Y O *D BUFx3_ASAP7_75t_R
*CAP
1 *1155:A1 0
2 *1999:Y 2.09398e-05
3 *1034:8 2.09398e-05
4 *1999:A *1034:8 0
5 *356:38 *1034:8 2.20179e-07
6 *356:49 *1034:8 8.96443e-08
7 *357:10 *1034:8 0
8 *358:12 *1034:8 0
9 *1031:10 *1034:8 0
*RES
1 *1999:Y *1034:8 47.3528 
2 *1034:8 *1155:A1 34.4 
*END

*D_NET *1036 0.000208531
*CONN
*I *2082:A I *D BUFx3_ASAP7_75t_R
*I *1143:A I *D OR4x1_ASAP7_75t_R
*I *2001:Y O *D BUFx3_ASAP7_75t_R
*CAP
1 *2082:A 1.48339e-05
2 *1143:A 1.31519e-05
3 *2001:Y 0
4 *1036:18 2.24185e-05
5 *1036:12 4.64334e-05
6 *1036:6 5.20007e-05
7 *2082:A *1117:14 5.17782e-06
8 *1143:B *1143:A 7.63254e-06
9 *1191:A *1036:12 4.17901e-06
10 *31:10 *1036:12 5.34278e-06
11 *31:10 *1036:18 5.52652e-06
12 *33:14 *1143:A 7.54771e-06
13 *291:8 *1036:12 0
14 *292:10 *2082:A 1.1174e-05
15 *292:10 *1036:12 6.80131e-06
16 *293:10 *2082:A 2.20128e-06
17 *293:10 *1036:12 4.10928e-06
18 *360:8 *2082:A 0
19 *729:53 *1036:18 0
*RES
1 *2001:Y *1036:6 34.4 
2 *1036:6 *1036:12 42.6202 
3 *1036:12 *1036:18 41.158 
4 *1036:18 *1143:A 27.8965 
5 *1036:6 *2082:A 48.2808 
*END

*D_NET *1037 0.000149976
*CONN
*I *1206:A1 I *D AOI221x1_ASAP7_75t_R
*I *1204:A I *D INVx1_ASAP7_75t_R
*I *2002:Y O *D BUFx3_ASAP7_75t_R
*CAP
1 *1206:A1 0
2 *1204:A 0
3 *2002:Y 6.11262e-06
4 *1037:29 2.90668e-05
5 *1037:19 4.68685e-05
6 *1037:6 2.39143e-05
7 *1205:A *1037:19 7.86089e-07
8 *1205:B *1037:19 1.98969e-05
9 *1206:A2 *1037:29 6.72662e-07
10 *390:29 *1037:29 9.17549e-06
11 *394:14 *1037:6 2.90759e-06
12 *394:14 *1037:19 2.75796e-06
13 *396:6 *1037:29 5.62196e-06
14 *399:20 *1037:19 2.19482e-06
*RES
1 *2002:Y *1037:6 19.8741 
2 *1037:6 *1204:A 17.2 
3 *1037:6 *1037:19 43.2671 
4 *1037:19 *1037:29 44.4246 
5 *1037:29 *1206:A1 17.2 
*END

*D_NET *1038 0.00015601
*CONN
*I *1125:A2 I *D OA21x2_ASAP7_75t_R
*I *1124:B I *D OR2x2_ASAP7_75t_R
*I *2003:Y O *D BUFx3_ASAP7_75t_R
*CAP
1 *1125:A2 0
2 *1124:B 1.64456e-05
3 *2003:Y 4.21019e-06
4 *1038:33 3.9675e-06
5 *1038:25 4.36825e-05
6 *1038:8 6.03708e-05
7 *1124:A *1124:B 1.46661e-05
8 *272:27 *1038:25 2.96155e-06
9 *295:14 *1038:33 8.2174e-07
10 *296:10 *1038:25 0
11 *296:10 *1038:33 8.33296e-06
12 *340:10 *1038:25 0
13 *340:10 *1038:33 5.51397e-07
*RES
1 *2003:Y *1038:8 36.0045 
2 *1038:8 *1124:B 43.7754 
3 *1038:8 *1038:25 34.6262 
4 *1038:25 *1038:33 38.2855 
5 *1038:33 *1125:A2 17.2 
*END

*D_NET *1022 6.33097e-05
*CONN
*I *1529:A I *D NAND2x1_ASAP7_75t_R
*I *1526:A I *D OR2x4_ASAP7_75t_R
*I *1987:Y O *D BUFx3_ASAP7_75t_R
*CAP
1 *1529:A 1.33392e-05
2 *1526:A 1.21138e-05
3 *1987:Y 3.37925e-06
4 *1022:8 2.88322e-05
5 *1526:B *1529:A 5.52807e-07
6 *1529:B *1529:A 2.98814e-08
7 *1530:A2 *1529:A 2.71246e-07
8 *259:8 *1529:A 1.10561e-06
9 *606:8 *1526:A 3.68565e-06
*RES
1 *1987:Y *1022:8 37.2158 
2 *1022:8 *1526:A 42.4224 
3 *1022:8 *1529:A 42.2276 
*END

*D_NET *708 0.000421559
*CONN
*I *1608:A1 I *D AO21x2_ASAP7_75t_R
*I *1695:B I *D HAxp5_ASAP7_75t_R
*I *1827:Y O *D BUFx2_ASAP7_75t_R
*CAP
1 *1608:A1 0
2 *1695:B 0
3 *1827:Y 2.04587e-06
4 *708:49 2.64638e-05
5 *708:32 2.33823e-05
6 *708:24 0.000148219
7 *708:18 0.000112703
8 *708:8 1.63756e-05
9 *708:18 *862:21 1.33146e-06
10 *708:24 *1015:28 0
11 *708:49 *1608:A2 3.63688e-06
12 *708:49 *1015:120 1.98904e-06
13 *708:49 *1106:10 0
14 *1646:A *708:8 1.49407e-08
15 *602:30 *708:24 3.9264e-05
16 *609:10 *708:49 8.15175e-06
17 *612:20 *708:49 2.71153e-06
18 *699:8 *708:32 9.98889e-07
19 *701:33 *708:18 3.4272e-05
*RES
1 *1827:Y *708:8 35.4325 
2 *708:8 *708:18 48.7417 
3 *708:18 *708:24 37.7622 
4 *708:24 *708:32 38.5277 
5 *708:32 *1695:B 34.4 
6 *708:24 *708:49 44.7136 
7 *708:49 *1608:A1 34.4 
*END

*D_NET *1040 1.89183e-05
*CONN
*I *1375:B I *D NOR2x1_ASAP7_75t_R
*I *2005:Y O *D BUFx3_ASAP7_75t_R
*CAP
1 *1375:B 9.45915e-06
2 *2005:Y 9.45915e-06
*RES
1 *2005:Y *1375:B 39.2134 
*END

*D_NET *1039 0.000106702
*CONN
*I *1222:A I *D OR2x2_ASAP7_75t_R
*I *1225:A1 I *D OA21x2_ASAP7_75t_R
*I *2004:Y O *D BUFx3_ASAP7_75t_R
*CAP
1 *1222:A 1.15435e-05
2 *1225:A1 0
3 *2004:Y 1.40773e-05
4 *1039:8 2.56208e-05
5 *401:8 *1039:8 4.10928e-06
6 *403:18 *1222:A 5.13626e-07
7 *404:10 *1039:8 4.41094e-06
8 *405:14 *1039:8 0
9 *408:10 *1222:A 8.26996e-06
10 *408:10 *1039:8 1.02072e-05
11 *408:16 *1222:A 2.71274e-05
12 *769:23 *1039:8 8.2174e-07
*RES
1 *2004:Y *1039:8 46.2265 
2 *1039:8 *1225:A1 34.4 
3 *1039:8 *1222:A 44.1686 
*END

*D_NET *1042 2.68367e-05
*CONN
*I *1528:A1 I *D OAI21x1_ASAP7_75t_R
*I *2007:Y O *D BUFx3_ASAP7_75t_R
*CAP
1 *1528:A1 3.85606e-06
2 *2007:Y 4.87285e-06
3 *1042:8 8.72891e-06
4 *1528:B *1528:A1 1.95129e-06
5 *133:8 *1042:8 2.22736e-06
6 *257:8 *1042:8 2.22736e-06
7 *608:6 *1528:A1 2.97289e-06
8 *699:8 *1042:8 0
*RES
1 *2007:Y *1042:8 38.9053 
2 *1042:8 *1528:A1 37.0741 
*END

*D_NET *1041 2.71032e-05
*CONN
*I *1374:B I *D NOR2x1_ASAP7_75t_R
*I *2006:Y O *D BUFx3_ASAP7_75t_R
*CAP
1 *1374:B 7.00367e-06
2 *2006:Y 5.74961e-06
3 *1041:8 1.27533e-05
4 *94:12 *1041:8 1.59666e-06
*RES
1 *2006:Y *1041:8 38.9053 
2 *1041:8 *1374:B 38.1438 
*END

*D_NET *1044 1.12358e-05
*CONN
*I *1563:A I *D NOR2x1_ASAP7_75t_R
*I *2009:Y O *D BUFx3_ASAP7_75t_R
*CAP
1 *1563:A 0
2 *2009:Y 5.05343e-06
3 *1044:8 5.05343e-06
4 *1015:148 *1044:8 1.12894e-06
*RES
1 *2009:Y *1044:8 37.779 
2 *1044:8 *1563:A 34.4 
*END

*D_NET *1043 6.15233e-05
*CONN
*I *1506:A I *D NOR2x1_ASAP7_75t_R
*I *2008:Y O *D BUFx3_ASAP7_75t_R
*CAP
1 *1506:A 0
2 *2008:Y 2.7331e-05
3 *1043:10 2.7331e-05
4 *1043:10 *1095:12 0
5 *1043:10 *1098:10 5.67735e-06
6 *1502:B *1043:10 6.7842e-07
7 *2063:A *1043:10 5.0551e-07
*RES
1 *2008:Y *1043:10 47.9974 
2 *1043:10 *1506:A 34.4 
*END

*D_NET *1045 5.42766e-05
*CONN
*I *1475:B I *D NOR2x1_ASAP7_75t_R
*I *2010:Y O *D BUFx3_ASAP7_75t_R
*CAP
1 *1475:B 1.30572e-05
2 *2010:Y 7.18397e-06
3 *1045:8 2.02412e-05
4 *1475:B *1051:8 2.03526e-06
5 *1045:8 *1051:14 8.33296e-06
6 *1352:A *1475:B 2.14755e-06
7 *153:17 *1045:8 0
8 *459:18 *1045:8 5.15209e-07
9 *570:10 *1475:B 7.63254e-07
10 *688:12 *1045:8 0
*RES
1 *2010:Y *1045:8 40.0317 
2 *1045:8 *1475:B 41.3527 
*END

*D_NET *1046 8.98422e-05
*CONN
*I *1501:A I *D NOR2x1_ASAP7_75t_R
*I *2011:Y O *D BUFx3_ASAP7_75t_R
*CAP
1 *1501:A 0
2 *2011:Y 0
3 *1046:10 3.33991e-05
4 *1046:6 3.33991e-05
5 *1046:10 *1098:10 0
6 *2063:A *1046:10 0
7 *150:10 *1046:10 1.53446e-05
8 *150:18 *1046:10 1.67815e-06
9 *195:12 *1046:10 0
10 *207:10 *1046:10 2.46522e-06
11 *590:8 *1046:10 3.55589e-06
*RES
1 *2011:Y *1046:6 34.4 
2 *1046:6 *1046:10 43.1056 
3 *1046:10 *1501:A 17.2 
*END

*D_NET *1047 5.1445e-05
*CONN
*I *1567:A I *D NOR2x2_ASAP7_75t_R
*I *2012:Y O *D BUFx3_ASAP7_75t_R
*CAP
1 *1567:A 3.90877e-06
2 *2012:Y 1.23504e-05
3 *1047:10 1.62592e-05
4 *277:10 *1047:10 5.51814e-06
5 *703:12 *1567:A 5.0551e-07
6 *703:25 *1047:10 1.2903e-05
*RES
1 *2012:Y *1047:10 42.6491 
2 *1047:10 *1567:A 36.0045 
*END

*D_NET *1048 3.4726e-05
*CONN
*I *1493:A I *D NOR2x2_ASAP7_75t_R
*I *2013:Y O *D BUFx3_ASAP7_75t_R
*CAP
1 *1493:A 1.36893e-05
2 *2013:Y 1.36893e-05
3 *1493:A *2013:A 2.0895e-06
4 *459:72 *1493:A 5.25794e-06
*RES
1 *2013:Y *1493:A 43.492 
*END

*D_NET *709 0.000139007
*CONN
*I *1613:B I *D HAxp5_ASAP7_75t_R
*I *2034:A I *D BUFx3_ASAP7_75t_R
*I *1828:Y O *D BUFx2_ASAP7_75t_R
*CAP
1 *1613:B 4.15379e-06
2 *2034:A 0
3 *1828:Y 3.44305e-06
4 *709:33 2.82459e-05
5 *709:16 2.7076e-05
6 *709:14 2.59825e-05
7 *709:8 2.64417e-05
8 *709:8 *866:27 7.81559e-07
9 *709:8 *1018:20 0
10 *709:16 *1018:20 0
11 *709:33 *1018:20 0
12 *1245:D *709:33 0
13 *20:12 *709:33 7.84037e-07
14 *21:8 *1613:B 1.23408e-05
15 *21:8 *709:33 9.75735e-06
*RES
1 *1828:Y *709:8 37.2158 
2 *709:8 *709:14 47.7706 
3 *709:14 *709:16 2.81583 
4 *709:16 *2034:A 34.4 
5 *709:16 *709:33 49.1237 
6 *709:33 *1613:B 38.1438 
*END

*D_NET *1049 1.98157e-05
*CONN
*I *1534:A I *D NOR2x1_ASAP7_75t_R
*I *2014:Y O *D BUFx3_ASAP7_75t_R
*CAP
1 *1534:A 9.90786e-06
2 *2014:Y 9.90786e-06
*RES
1 *2014:Y *1534:A 39.2134 
*END

*D_NET *1020 0.000335009
*CONN
*I *1595:A I *D NOR2x1_ASAP7_75t_R
*I *1985:Y O *D BUFx3_ASAP7_75t_R
*CAP
1 *1595:A 1.2713e-05
2 *1985:Y 2.58474e-06
3 *1020:38 3.47177e-05
4 *1020:28 0.000130092
5 *1020:20 0.000117559
6 *1020:8 1.20567e-05
7 *1502:A1 *1595:A 2.83874e-07
8 *185:10 *1595:A 7.78051e-06
9 *453:10 *1020:8 0
10 *459:51 *1595:A 2.45028e-06
11 *683:12 *1020:20 1.10955e-07
12 *685:30 *1020:28 1.1649e-06
13 *801:28 *1020:20 3.72433e-07
14 *840:13 *1020:28 1.08558e-06
15 *840:23 *1020:38 1.14888e-05
16 *881:13 *1020:20 0
17 *1017:22 *1595:A 5.49212e-07
18 *1017:38 *1595:A 0
*RES
1 *1985:Y *1020:8 35.6202 
2 *1020:8 *1020:20 43.1469 
3 *1020:20 *1020:28 40.3102 
4 *1020:28 *1020:38 49.005 
5 *1020:38 *1595:A 45.9449 
*END

*D_NET *1050 2.72915e-05
*CONN
*I *1607:A I *D NOR2x1_ASAP7_75t_R
*I *2015:Y O *D BUFx3_ASAP7_75t_R
*CAP
1 *1607:A 1.32641e-05
2 *2015:Y 1.32641e-05
3 *1015:116 *1607:A 7.63254e-07
*RES
1 *2015:Y *1607:A 40.2831 
*END

*D_NET *1095 0.000129351
*CONN
*I *1510:A I *D NOR2x1_ASAP7_75t_R
*I *2060:Y O *D BUFx3_ASAP7_75t_R
*CAP
1 *1510:A 0
2 *2060:Y 0
3 *1095:20 9.95475e-06
4 *1095:12 4.08501e-05
5 *1095:6 3.08953e-05
6 *1095:12 *1098:10 0
7 *1095:12 *1099:8 0
8 *1510:B *1095:20 2.20493e-06
9 *220:8 *1095:12 1.99859e-06
10 *220:8 *1095:20 8.22984e-06
11 *581:8 *1095:20 0
12 *581:14 *1095:20 1.51653e-06
13 *592:8 *1095:12 1.33022e-05
14 *1017:69 *1095:12 0
15 *1017:93 *1095:12 8.2174e-07
16 *1043:10 *1095:12 0
17 *1052:10 *1095:12 3.32579e-06
18 *1061:53 *1095:12 1.62515e-05
*RES
1 *2060:Y *1095:6 34.4 
2 *1095:6 *1095:12 38.6346 
3 *1095:12 *1095:20 42.1231 
4 *1095:20 *1510:A 17.2 
*END

*D_NET *1051 0.000112038
*CONN
*I *1497:A I *D NOR2x1_ASAP7_75t_R
*I *2016:Y O *D BUFx3_ASAP7_75t_R
*CAP
1 *1497:A 0
2 *2016:Y 6.19019e-06
3 *1051:14 2.20089e-05
4 *1051:8 2.81991e-05
5 *1352:A *1051:8 0
6 *1475:B *1051:8 2.03526e-06
7 *459:18 *1051:14 6.33206e-07
8 *459:27 *1051:14 1.45865e-05
9 *459:38 *1051:14 3.04795e-06
10 *687:37 *1051:14 2.70043e-05
11 *804:20 *1051:14 0
12 *1045:8 *1051:14 8.33296e-06
*RES
1 *2016:Y *1051:8 37.0741 
2 *1051:8 *1051:14 36.2626 
3 *1051:14 *1497:A 17.2 
*END

*D_NET *1052 0.000266237
*CONN
*I *1296:A I *D NOR2x1_ASAP7_75t_R
*I *2017:Y O *D BUFx3_ASAP7_75t_R
*CAP
1 *1296:A 2.71613e-06
2 *2017:Y 1.88978e-06
3 *1052:10 5.52186e-05
4 *1052:8 5.43922e-05
5 *1052:10 *1095:12 3.32579e-06
6 *1052:10 *1099:8 2.83102e-05
7 *1281:A2 *1052:10 3.05074e-06
8 *1281:B *1052:10 3.66066e-05
9 *1284:A *1052:10 4.90042e-07
10 *1296:B *1296:A 2.12481e-06
11 *10:8 *1052:10 4.89331e-06
12 *119:21 *1052:10 0
13 *120:8 *1052:10 3.33203e-05
14 *121:10 *1052:10 7.21451e-07
15 *152:8 *1052:10 0
16 *444:31 *1052:10 8.20723e-06
17 *445:10 *1052:8 5.41446e-06
18 *445:10 *1052:10 2.03489e-05
19 *448:8 *1052:10 5.2059e-06
*RES
1 *2017:Y *1052:8 36.0045 
2 *1052:8 *1052:10 58.5693 
3 *1052:10 *1296:A 36.0045 
*END

*D_NET *1053 0.000132447
*CONN
*I *1571:A I *D NOR2x1_ASAP7_75t_R
*I *2018:Y O *D BUFx3_ASAP7_75t_R
*CAP
1 *1571:A 0
2 *2018:Y 5.22344e-06
3 *1053:14 5.17776e-05
4 *1053:8 5.7001e-05
5 *1221:A *1053:8 8.17002e-07
6 *1656:A *1053:14 0
7 *2018:A *1053:14 0
8 *134:8 *1053:8 1.46661e-05
9 *702:10 *1053:14 0
10 *702:23 *1053:14 0
11 *1015:94 *1053:14 2.96155e-06
*RES
1 *2018:Y *1053:8 38.1438 
2 *1053:8 *1053:14 45.553 
3 *1053:14 *1571:A 17.2 
*END

*D_NET *1054 1.73986e-05
*CONN
*I *1397:A I *D NOR2x1_ASAP7_75t_R
*I *2019:Y O *D BUFx3_ASAP7_75t_R
*CAP
1 *1397:A 0
2 *2019:Y 2.7203e-06
3 *1054:8 2.7203e-06
4 *740:25 *1054:8 5.97901e-06
5 *1016:24 *1054:8 5.97901e-06
*RES
1 *2019:Y *1054:8 38.9053 
2 *1054:8 *1397:A 34.4 
*END

*D_NET *1055 1.91053e-05
*CONN
*I *1554:A I *D NOR2x2_ASAP7_75t_R
*I *2020:Y O *D BUFx3_ASAP7_75t_R
*CAP
1 *1554:A 0
2 *2020:Y 6.07657e-06
3 *1055:8 6.07657e-06
4 *612:40 *1055:8 6.95214e-06
5 *633:12 *1055:8 0
*RES
1 *2020:Y *1055:8 40.0317 
2 *1055:8 *1554:A 34.4 
*END

*D_NET *1056 3.54101e-05
*CONN
*I *1558:A I *D NOR2x1_ASAP7_75t_R
*I *2021:Y O *D BUFx3_ASAP7_75t_R
*CAP
1 *1558:A 0
2 *2021:Y 1.04275e-05
3 *1056:10 1.04275e-05
4 *104:14 *1056:10 8.87763e-06
5 *612:48 *1056:10 5.67735e-06
*RES
1 *2021:Y *1056:10 41.5795 
2 *1056:10 *1558:A 34.4 
*END

*D_NET *710 0.000252928
*CONN
*I *2033:A I *D BUFx3_ASAP7_75t_R
*I *1658:B I *D HAxp5_ASAP7_75t_R
*I *1829:Y O *D BUFx2_ASAP7_75t_R
*CAP
1 *2033:A 0
2 *1658:B 7.20069e-06
3 *1829:Y 8.38325e-06
4 *710:28 2.06672e-05
5 *710:22 1.90123e-05
6 *710:16 4.72217e-05
7 *710:10 5.00592e-05
8 *710:10 *783:6 3.68565e-06
9 *710:16 *717:16 0
10 *710:16 *761:18 2.02577e-05
11 *710:16 *863:25 0
12 *710:16 *1018:26 1.02633e-06
13 *710:16 *1018:28 2.10815e-06
14 *710:16 *1018:30 4.10534e-06
15 *710:22 *783:18 1.08167e-05
16 *710:28 *1336:A 2.61188e-06
17 *710:28 *783:18 1.95129e-06
18 *140:12 *710:22 5.25794e-06
19 *140:12 *710:28 9.94091e-06
20 *140:23 *710:22 3.05118e-08
21 *273:8 *710:28 1.90474e-05
22 *273:21 *710:28 1.95441e-05
*RES
1 *1829:Y *710:10 39.8705 
2 *710:10 *710:16 49.7671 
3 *710:16 *710:22 22.7271 
4 *710:22 *710:28 33.05 
5 *710:28 *1658:B 38.1438 
6 *710:22 *2033:A 17.2 
*END

*D_NET *1096 1.17736e-05
*CONN
*I *1332:A I *D NOR2x1_ASAP7_75t_R
*I *2061:Y O *D BUFx3_ASAP7_75t_R
*CAP
1 *1332:A 5.2549e-06
2 *2061:Y 5.2549e-06
3 *83:17 *1332:A 1.26378e-06
*RES
1 *2061:Y *1332:A 37.0741 
*END

*D_NET *1057 1.3572e-05
*CONN
*I *1575:A I *D NOR2x1_ASAP7_75t_R
*I *2022:Y O *D BUFx3_ASAP7_75t_R
*CAP
1 *1575:A 0
2 *2022:Y 5.17576e-06
3 *1057:8 5.17576e-06
4 *1057:8 *1070:8 5.49212e-07
5 *1057:8 *1070:21 2.67122e-06
6 *2022:A *1057:8 0
*RES
1 *2022:Y *1057:8 38.9053 
2 *1057:8 *1575:A 34.4 
*END

*D_NET *1058 7.56681e-05
*CONN
*I *1591:A I *D INVx1_ASAP7_75t_R
*I *1238:A I *D AND2x2_ASAP7_75t_R
*I *2023:Y O *D BUFx3_ASAP7_75t_R
*CAP
1 *1591:A 0
2 *1238:A 0
3 *2023:Y 1.82734e-05
4 *1058:14 1.18655e-05
5 *1058:6 3.01389e-05
6 *1058:14 *1097:12 0
7 *148:12 *1058:6 3.16328e-06
8 *767:16 *1058:14 5.52264e-06
9 *775:16 *1058:6 6.70433e-06
*RES
1 *2023:Y *1058:6 26.292 
2 *1058:6 *1058:14 43.8321 
3 *1058:14 *1238:A 17.2 
4 *1058:6 *1591:A 17.2 
*END

*D_NET *1097 0.000209232
*CONN
*I *1661:A I *D HAxp5_ASAP7_75t_R
*I *1240:A I *D AND2x2_ASAP7_75t_R
*I *2062:Y O *D BUFx3_ASAP7_75t_R
*CAP
1 *1661:A 1.30807e-06
2 *1240:A 0
3 *2062:Y 3.48313e-05
4 *1097:12 4.38245e-05
5 *1097:10 4.7564e-05
6 *1097:8 3.72627e-05
7 *1661:B *1097:12 1.69425e-05
8 *2062:A *1097:8 1.89933e-05
9 *11:6 *1661:A 2.30405e-06
10 *11:6 *1097:8 6.20163e-06
11 *148:8 *1097:12 0
12 *417:8 *1097:12 0
13 *767:16 *1097:12 0
14 *775:10 *1097:12 0
15 *813:12 *1097:12 0
16 *1058:14 *1097:12 0
*RES
1 *2062:Y *1097:8 48.8403 
2 *1097:8 *1097:10 1.6895 
3 *1097:10 *1097:12 34.3531 
4 *1097:12 *1240:A 34.4 
5 *1097:10 *1661:A 36.0045 
*END

*D_NET *1059 8.19172e-05
*CONN
*I *1142:A I *D INVx1_ASAP7_75t_R
*I *1209:A I *D AND2x2_ASAP7_75t_R
*I *2024:Y O *D BUFx3_ASAP7_75t_R
*CAP
1 *1142:A 0
2 *1209:A 0
3 *2024:Y 9.9224e-06
4 *1059:21 2.67375e-05
5 *1059:8 3.66599e-05
6 *1059:8 *1060:18 9.52859e-07
7 *1059:21 *1633:A 7.75244e-07
8 *1633:B *1059:21 6.86929e-06
*RES
1 *2024:Y *1059:8 41.158 
2 *1059:8 *1209:A 34.4 
3 *1059:8 *1059:21 36.3723 
4 *1059:21 *1142:A 17.2 
*END

*D_NET *1098 5.23163e-05
*CONN
*I *1507:A1 I *D AO21x2_ASAP7_75t_R
*I *2063:Y O *D BUFx3_ASAP7_75t_R
*CAP
1 *1507:A1 0
2 *2063:Y 0
3 *1098:10 2.22249e-05
4 *1098:6 2.22249e-05
5 *1296:B *1098:10 8.06799e-07
6 *2063:A *1098:10 1.09842e-06
7 *119:21 *1098:10 0
8 *590:8 *1098:10 0
9 *1017:10 *1098:10 0
10 *1017:69 *1098:10 2.83874e-07
11 *1043:10 *1098:10 5.67735e-06
12 *1046:10 *1098:10 0
13 *1095:12 *1098:10 0
*RES
1 *2063:Y *1098:6 34.4 
2 *1098:6 *1098:10 34.6581 
3 *1098:10 *1507:A1 17.2 
*END

*D_NET *1060 0.00026821
*CONN
*I *1633:A I *D HAxp5_ASAP7_75t_R
*I *1210:A1 I *D AO21x1_ASAP7_75t_R
*I *2025:Y O *D BUFx3_ASAP7_75t_R
*CAP
1 *1633:A 1.15013e-05
2 *1210:A1 2.02471e-05
3 *2025:Y 2.73541e-05
4 *1060:18 4.08455e-05
5 *1060:14 3.39684e-05
6 *1060:8 5.22254e-05
7 *1164:A *1060:8 1.00935e-05
8 *1210:A2 *1210:A1 1.82733e-06
9 *1210:B *1210:A1 3.60576e-05
10 *2024:A *1060:14 2.37222e-05
11 *100:8 *1210:A1 5.70436e-07
12 *400:10 *1633:A 8.06923e-06
13 *1059:8 *1060:18 9.52859e-07
14 *1059:21 *1633:A 7.75244e-07
*RES
1 *2025:Y *1060:8 49.9099 
2 *1060:8 *1060:14 35.3027 
3 *1060:14 *1060:18 23.958 
4 *1060:18 *1210:A1 47.7706 
5 *1060:18 *1633:A 42.2843 
*END

*D_NET *1099 0.000142591
*CONN
*I *1511:A1 I *D AO21x2_ASAP7_75t_R
*I *2064:Y O *D BUFx3_ASAP7_75t_R
*CAP
1 *1511:A1 3.15963e-06
2 *2064:Y 0
3 *1099:8 4.19236e-05
4 *1099:6 3.8764e-05
5 *1510:B *1511:A1 6.7842e-07
6 *1511:A2 *1511:A1 1.35684e-06
7 *209:14 *1099:8 1.62854e-06
8 *249:10 *1099:8 0
9 *462:10 *1099:8 5.52652e-06
10 *1017:93 *1099:8 2.0153e-05
11 *1052:10 *1099:8 2.83102e-05
12 *1061:53 *1099:8 1.09067e-06
13 *1095:12 *1099:8 0
*RES
1 *2064:Y *1099:6 34.4 
2 *1099:6 *1099:8 38.2953 
3 *1099:8 *1511:A1 36.0045 
*END

*D_NET *1061 0.000376962
*CONN
*I *1297:A1 I *D AO21x2_ASAP7_75t_R
*I *1343:A I *D INVx1_ASAP7_75t_R
*I *2026:Y O *D BUFx3_ASAP7_75t_R
*CAP
1 *1297:A1 0
2 *1343:A 0
3 *2026:Y 4.25144e-06
4 *1061:53 9.94604e-06
5 *1061:41 0.000135755
6 *1061:35 0.000136574
7 *1061:18 1.12099e-06
8 *1061:12 3.82877e-05
9 *1061:8 3.0653e-05
10 *1061:8 *1109:17 0
11 *1061:53 *1095:12 1.62515e-05
12 *1061:53 *1099:8 1.09067e-06
13 *161:8 *1061:18 1.30746e-06
14 *801:28 *1061:12 1.1445e-06
15 *1017:93 *1061:53 5.79724e-07
*RES
1 *2026:Y *1061:8 37.3097 
2 *1061:8 *1061:12 29.9698 
3 *1061:12 *1061:18 35.4325 
4 *1061:18 *1343:A 17.2 
5 *1061:12 *1061:35 34.5647 
6 *1061:35 *1061:41 39.6411 
7 *1061:41 *1061:53 47.5373 
8 *1061:53 *1297:A1 34.4 
*END

*D_NET *1062 4.06427e-05
*CONN
*I *1395:B I *D OA21x2_ASAP7_75t_R
*I *2027:Y O *D BUFx3_ASAP7_75t_R
*CAP
1 *1395:B 0
2 *2027:Y 1.74527e-05
3 *1062:8 1.74527e-05
4 *742:8 *1062:8 0
5 *1026:44 *1062:8 5.16952e-06
6 *1027:49 *1062:8 5.67747e-07
*RES
1 *2027:Y *1062:8 46.7897 
2 *1062:8 *1395:B 34.4 
*END

*D_NET *711 0.000283316
*CONN
*I *2032:A I *D BUFx3_ASAP7_75t_R
*I *1612:B I *D HAxp5_ASAP7_75t_R
*I *1830:Y O *D BUFx2_ASAP7_75t_R
*CAP
1 *2032:A 0
2 *1612:B 0
3 *1830:Y 2.24368e-06
4 *711:34 4.46066e-05
5 *711:28 5.18007e-05
6 *711:20 1.88739e-05
7 *711:14 4.50277e-05
8 *711:8 3.55915e-05
9 *711:14 *712:18 2.73437e-06
10 *711:14 *854:25 5.67952e-05
11 *711:14 *865:21 1.79776e-06
12 *711:20 *1260:A 1.16717e-05
13 *711:28 *1260:A 9.30988e-06
14 *711:28 *1018:16 1.49407e-08
15 *711:34 *863:25 3.1168e-07
16 *18:8 *711:34 0
17 *20:12 *711:34 2.10986e-06
18 *287:8 *711:28 4.26751e-07
*RES
1 *1830:Y *711:8 35.9956 
2 *711:8 *711:14 47.8192 
3 *711:14 *711:20 25.805 
4 *711:20 *711:28 39.7961 
5 *711:28 *711:34 35.5231 
6 *711:34 *1612:B 34.4 
7 *711:20 *2032:A 17.2 
*END

*D_NET *1063 3.03601e-05
*CONN
*I *1639:A I *D HAxp5_ASAP7_75t_R
*I *2028:Y O *D BUFx3_ASAP7_75t_R
*CAP
1 *1639:A 0
2 *2028:Y 5.95531e-06
3 *1063:8 5.95531e-06
4 *1639:B *1063:8 4.37267e-07
5 *1:8 *1063:8 5.97901e-06
6 *732:10 *1063:8 0
7 *886:31 *1063:8 0
8 *895:29 *1063:8 1.20332e-05
*RES
1 *2028:Y *1063:8 42.2843 
2 *1063:8 *1639:A 34.4 
*END

*D_NET *1100 4.45624e-05
*CONN
*I *1174:B I *D AND2x4_ASAP7_75t_R
*I *2065:Y O *D BUFx3_ASAP7_75t_R
*CAP
1 *1174:B 0
2 *2065:Y 1.71019e-05
3 *1100:8 1.71019e-05
4 *371:10 *1100:8 2.19685e-06
5 *371:12 *1100:8 3.16931e-06
6 *373:68 *1100:8 0
7 *373:74 *1100:8 0
8 *380:8 *1100:8 4.99242e-06
9 *719:14 *1100:8 0
10 *1064:8 *1100:8 0
*RES
1 *2065:Y *1100:8 47.3528 
2 *1100:8 *1174:B 34.4 
*END

*D_NET *1064 1.08425e-05
*CONN
*I *1344:A I *D AND2x4_ASAP7_75t_R
*I *2029:Y O *D BUFx3_ASAP7_75t_R
*CAP
1 *1344:A 0
2 *2029:Y 5.42126e-06
3 *1064:8 5.42126e-06
4 *1064:8 *1100:8 0
5 *22:12 *1064:8 0
*RES
1 *2029:Y *1064:8 37.779 
2 *1064:8 *1344:A 34.4 
*END

*D_NET *1101 2.0364e-05
*CONN
*I *1348:B I *D AND2x4_ASAP7_75t_R
*I *2066:Y O *D BUFx3_ASAP7_75t_R
*CAP
1 *1348:B 6.36574e-06
2 *2066:Y 6.36574e-06
3 *488:6 *1348:B 7.63254e-06
*RES
1 *2066:Y *1348:B 39.7482 
*END

*D_NET *1065 0.000154664
*CONN
*I *1213:A I *D INVx1_ASAP7_75t_R
*I *1159:A I *D AND2x2_ASAP7_75t_R
*I *2030:Y O *D BUFx3_ASAP7_75t_R
*CAP
1 *1213:A 4.12402e-06
2 *1159:A 0
3 *2030:Y 1.5566e-05
4 *1065:16 3.71279e-05
5 *1065:10 5.68179e-05
6 *1065:10 *1102:12 0
7 *1065:16 *1102:12 0
8 *1159:B *1065:16 2.12373e-05
9 *27:8 *1065:10 5.37866e-07
10 *374:10 *1065:16 6.33206e-07
11 *714:16 *1065:16 4.92648e-06
12 *716:8 *1065:16 1.10902e-06
13 *723:8 *1065:10 8.46363e-06
14 *723:12 *1213:A 5.51397e-07
15 *870:25 *1065:16 3.16624e-06
16 *878:27 *1065:16 4.03399e-07
*RES
1 *2030:Y *1065:10 45.0151 
2 *1065:10 *1065:16 44.4834 
3 *1065:16 *1159:A 17.2 
4 *1065:10 *1213:A 36.0045 
*END

*D_NET *1102 0.000206885
*CONN
*I *1616:A I *D HAxp5_ASAP7_75t_R
*I *1161:A I *D AND2x2_ASAP7_75t_R
*I *2067:Y O *D BUFx3_ASAP7_75t_R
*CAP
1 *1616:A 0
2 *1161:A 2.94854e-06
3 *2067:Y 2.4137e-05
4 *1102:12 4.19727e-05
5 *1102:10 6.31612e-05
6 *27:8 *1102:12 5.97901e-06
7 *371:45 *1102:12 9.65338e-06
8 *374:8 *1161:A 8.87763e-06
9 *374:10 *1102:12 2.68933e-07
10 *477:12 *1102:12 0
11 *723:16 *1102:12 4.88402e-05
12 *878:27 *1102:12 1.04612e-06
13 *1065:10 *1102:12 0
14 *1065:16 *1102:12 0
*RES
1 *2067:Y *1102:10 48.9006 
2 *1102:10 *1102:12 36.6058 
3 *1102:12 *1161:A 37.0741 
4 *1102:10 *1616:A 34.4 
*END

*D_NET *1066 3.40506e-05
*CONN
*I *1579:A I *D NAND2x1_ASAP7_75t_R
*I *2031:Y O *D BUFx3_ASAP7_75t_R
*CAP
1 *1579:A 3.01285e-06
2 *2031:Y 8.02554e-06
3 *1066:10 1.10384e-05
4 *1580:A1 *1066:10 9.93857e-06
5 *273:8 *1066:10 2.03526e-06
*RES
1 *2031:Y *1066:10 39.3835 
2 *1066:10 *1579:A 35.4697 
*END

*D_NET *1067 8.79633e-05
*CONN
*I *1260:A I *D NAND2x1_ASAP7_75t_R
*I *2032:Y O *D BUFx3_ASAP7_75t_R
*CAP
1 *1260:A 3.16302e-05
2 *2032:Y 3.16302e-05
3 *18:12 *1260:A 7.58265e-07
4 *436:10 *1260:A 7.58265e-07
5 *711:20 *1260:A 1.16717e-05
6 *711:28 *1260:A 9.30988e-06
7 *1018:16 *1260:A 2.20493e-06
*RES
1 *2032:Y *1260:A 49.9099 
*END

*D_NET *1068 2.30116e-05
*CONN
*I *1416:A I *D NAND2x1_ASAP7_75t_R
*I *2033:Y O *D BUFx3_ASAP7_75t_R
*CAP
1 *1416:A 2.75048e-06
2 *2033:Y 3.82448e-06
3 *1068:8 6.57496e-06
4 *140:23 *1068:8 9.86163e-06
5 *645:8 *1068:8 0
*RES
1 *2033:Y *1068:8 37.779 
2 *1068:8 *1416:A 35.4697 
*END

*D_NET *1069 4.36735e-05
*CONN
*I *1420:A I *D NAND2x1_ASAP7_75t_R
*I *2034:Y O *D BUFx3_ASAP7_75t_R
*CAP
1 *1420:A 3.23963e-06
2 *2034:Y 1.23274e-05
3 *1069:8 1.55671e-05
4 *19:12 *1069:8 0
5 *783:12 *1069:8 3.40177e-06
6 *783:18 *1420:A 8.87763e-06
7 *1018:20 *1069:8 2.45021e-07
8 *1018:26 *1069:8 1.49407e-08
*RES
1 *2034:Y *1069:8 42.2843 
2 *1069:8 *1420:A 37.0741 
*END

*D_NET *712 0.000311885
*CONN
*I *1700:B I *D HAxp5_ASAP7_75t_R
*I *2031:A I *D BUFx3_ASAP7_75t_R
*I *1831:Y O *D BUFx2_ASAP7_75t_R
*CAP
1 *1700:B 1.43142e-06
2 *2031:A 1.82731e-05
3 *1831:Y 3.22978e-06
4 *712:30 1.97045e-05
5 *712:28 7.70363e-05
6 *712:18 9.60036e-05
7 *712:8 2.21971e-05
8 *712:18 *717:16 3.46919e-06
9 *712:18 *854:25 5.29654e-07
10 *712:18 *863:25 1.02711e-05
11 *712:28 *717:24 3.64893e-05
12 *273:21 *1700:B 0
13 *273:21 *2031:A 0
14 *287:20 *712:18 2.31967e-06
15 *421:10 *2031:A 3.82371e-06
16 *421:20 *1700:B 2.57849e-06
17 *421:20 *2031:A 1.0789e-05
18 *700:8 *712:8 1.00467e-06
19 *711:14 *712:18 2.73437e-06
*RES
1 *1831:Y *712:8 36.5588 
2 *712:8 *712:18 47.9228 
3 *712:18 *712:28 43.6019 
4 *712:28 *712:30 17.2 
5 *712:30 *2031:A 49.2389 
6 *712:30 *1700:B 35.8079 
*END

*D_NET *1070 0.000101062
*CONN
*I *1576:A1 I *D AO21x2_ASAP7_75t_R
*I *1276:A I *D INVx1_ASAP7_75t_R
*I *2035:Y O *D BUFx3_ASAP7_75t_R
*CAP
1 *1576:A1 0
2 *1276:A 9.61228e-06
3 *2035:Y 1.14597e-05
4 *1070:21 2.04537e-05
5 *1070:8 4.15257e-05
6 *1646:A *1070:21 0
7 *2022:A *1070:8 0
8 *2022:A *1070:21 0
9 *1015:40 *1070:21 0
10 *1015:50 *1070:21 9.92908e-06
11 *1018:6 *1276:A 2.11853e-06
12 *1018:10 *1070:8 2.74257e-06
13 *1057:8 *1070:8 5.49212e-07
14 *1057:8 *1070:21 2.67122e-06
*RES
1 *2035:Y *1070:8 43.4107 
2 *1070:8 *1276:A 38.1438 
3 *1070:8 *1070:21 33.5318 
4 *1070:21 *1576:A1 17.2 
*END

*D_NET *1071 0.000113396
*CONN
*I *1353:A I *D NAND2x1_ASAP7_75t_R
*I *2036:Y O *D BUFx3_ASAP7_75t_R
*CAP
1 *1353:A 0
2 *2036:Y 1.17628e-05
3 *1071:14 1.55615e-05
4 *1071:8 2.73243e-05
5 *1254:B *1071:14 3.90258e-06
6 *1611:A *1071:14 0
7 *1611:B *1071:14 2.36401e-05
8 *2036:A *1071:8 6.78445e-06
9 *2036:A *1071:14 0
10 *14:8 *1071:14 2.0153e-05
11 *1019:8 *1071:14 4.26769e-06
*RES
1 *2036:Y *1071:8 40.2831 
2 *1071:8 *1071:14 33.4751 
3 *1071:14 *1353:A 17.2 
*END

*D_NET *1072 2.36306e-05
*CONN
*I *1647:A I *D HAxp5_ASAP7_75t_R
*I *2037:Y O *D BUFx3_ASAP7_75t_R
*CAP
1 *1647:A 0
2 *2037:Y 1.18153e-05
3 *1072:8 1.18153e-05
*RES
1 *2037:Y *1072:8 42.2843 
2 *1072:8 *1647:A 34.4 
*END

*D_NET *1103 0.000324521
*CONN
*I *1596:A1 I *D AO21x2_ASAP7_75t_R
*I *2068:Y O *D BUFx3_ASAP7_75t_R
*CAP
1 *1596:A1 7.27668e-06
2 *2068:Y 9.97151e-06
3 *1103:10 8.37749e-05
4 *1103:8 8.64698e-05
5 *1282:A *1103:8 1.64387e-05
6 *1291:A1 *1103:10 0
7 *1498:A2 *1103:10 0
8 *1805:A *1103:10 8.30021e-08
9 *139:12 *1103:10 0
10 *158:10 *1103:10 1.93266e-05
11 *185:10 *1103:10 7.78956e-05
12 *189:12 *1596:A1 3.3921e-06
13 *322:29 *1103:10 0
14 *456:10 *1103:10 7.36391e-07
15 *459:27 *1103:10 0
16 *459:38 *1103:10 0
17 *570:10 *1103:10 8.3676e-06
18 *588:8 *1103:10 9.11516e-06
19 *686:14 *1103:10 0
20 *690:25 *1103:10 1.67336e-06
*RES
1 *2068:Y *1103:8 39.2134 
2 *1103:8 *1103:10 67.0168 
3 *1103:10 *1596:A1 38.1438 
*END

*D_NET *1104 6.24681e-05
*CONN
*I *1306:A I *D NAND2x1_ASAP7_75t_R
*I *2069:Y O *D BUFx3_ASAP7_75t_R
*CAP
1 *1306:A 1.97486e-06
2 *2069:Y 1.42195e-05
3 *1104:8 1.61944e-05
4 *43:10 *1104:8 4.41094e-06
5 *44:8 *1104:8 0
6 *263:10 *1104:8 3.84449e-06
7 *467:8 *1104:8 1.67815e-06
8 *1019:67 *1104:8 2.01457e-05
*RES
1 *2069:Y *1104:8 49.6055 
2 *1104:8 *1306:A 35.4697 
*END

*D_NET *1073 1.24576e-05
*CONN
*I *1666:A I *D HAxp5_ASAP7_75t_R
*I *2038:Y O *D BUFx3_ASAP7_75t_R
*CAP
1 *1666:A 6.22879e-06
2 *2038:Y 6.22879e-06
*RES
1 *2038:Y *1666:A 37.0741 
*END

*D_NET *1074 2.64938e-05
*CONN
*I *1322:A I *D NAND2x1_ASAP7_75t_R
*I *2039:Y O *D BUFx3_ASAP7_75t_R
*CAP
1 *1322:A 2.52794e-06
2 *2039:Y 5.28209e-06
3 *1074:10 7.81003e-06
4 *84:10 *1074:10 0
5 *174:31 *1074:10 8.33296e-06
6 *689:12 *1322:A 2.03526e-06
7 *689:12 *1074:10 5.0551e-07
*RES
1 *2039:Y *1074:10 38.8203 
2 *1074:10 *1322:A 36.0045 
*END

*D_NET *1075 3.60614e-05
*CONN
*I *1188:A I *D INVx1_ASAP7_75t_R
*I *1268:A1 I *D AO21x1_ASAP7_75t_R
*I *2040:Y O *D BUFx3_ASAP7_75t_R
*CAP
1 *1188:A 4.86132e-06
2 *1268:A1 0
3 *2040:Y 0
4 *1075:12 1.31694e-05
5 *1075:4 1.80307e-05
6 *1268:B *1075:12 0
7 *439:8 *1188:A 0
8 *439:8 *1075:12 0
*RES
1 *2040:Y *1075:4 17.2 
2 *1075:4 *1075:12 41.5795 
3 *1075:12 *1268:A1 17.2 
4 *1075:4 *1188:A 19.8741 
*END

*D_NET *1076 9.24217e-05
*CONN
*I *1620:A I *D HAxp5_ASAP7_75t_R
*I *1267:C I *D OA211x2_ASAP7_75t_R
*I *2041:Y O *D BUFx3_ASAP7_75t_R
*CAP
1 *1620:A 2.53498e-05
2 *1267:C 0
3 *2041:Y 0
4 *1076:12 2.04427e-05
5 *1076:4 4.57926e-05
6 *341:32 *1076:12 4.03043e-07
7 *341:45 *1076:12 4.33555e-07
8 *345:38 *1076:12 0
9 *792:16 *1076:12 0
*RES
1 *2041:Y *1076:4 17.2 
2 *1076:4 *1076:12 44.8451 
3 *1076:12 *1267:C 17.2 
4 *1076:4 *1620:A 29.501 
*END

*D_NET *1077 9.8746e-06
*CONN
*I *1637:A I *D HAxp5_ASAP7_75t_R
*I *2042:Y O *D BUFx3_ASAP7_75t_R
*CAP
1 *1637:A 0
2 *2042:Y 4.9373e-06
3 *1077:8 4.9373e-06
4 *263:10 *1077:8 0
5 *794:36 *1077:8 0
*RES
1 *2042:Y *1077:8 37.779 
2 *1077:8 *1637:A 34.4 
*END

*D_NET *713 8.78029e-05
*CONN
*I *1214:A I *D INVx1_ASAP7_75t_R
*I *2067:A I *D BUFx3_ASAP7_75t_R
*I *1832:Y O *D BUFx2_ASAP7_75t_R
*CAP
1 *1214:A 9.27191e-06
2 *2067:A 0
3 *1832:Y 2.26631e-05
4 *713:12 7.23567e-06
5 *713:6 3.91706e-05
6 *1214:A *722:23 4.17901e-06
7 *713:6 *722:23 5.28264e-06
*RES
1 *1832:Y *713:6 25.2224 
2 *713:6 *713:12 38.9053 
3 *713:12 *2067:A 17.2 
4 *713:6 *1214:A 22.0134 
*END

*D_NET *1078 8.02442e-05
*CONN
*I *1367:A I *D OR4x1_ASAP7_75t_R
*I *1372:A I *D NAND2x1_ASAP7_75t_R
*I *2043:Y O *D BUFx3_ASAP7_75t_R
*CAP
1 *1367:A 1.19764e-05
2 *1372:A 7.21291e-06
3 *2043:Y 1.39199e-05
4 *1078:8 3.31093e-05
5 *1373:A1 *1078:8 2.03526e-06
6 *2043:A *1078:8 1.1677e-06
7 *215:23 *1367:A 0
8 *309:22 *1367:A 3.72303e-06
9 *309:22 *1372:A 6.36462e-06
10 *494:10 *1367:A 7.35063e-07
*RES
1 *2043:Y *1078:8 40.2831 
2 *1078:8 *1372:A 40.0317 
3 *1078:8 *1367:A 42.0859 
*END

*D_NET *1105 2.40267e-05
*CONN
*I *1965:A I *D BUFx3_ASAP7_75t_R
*I *2070:Y O *D BUFx3_ASAP7_75t_R
*CAP
1 *1965:A 0
2 *2070:Y 9.02385e-06
3 *1105:10 9.02385e-06
4 *249:10 *1105:10 5.97901e-06
5 *1000:10 *1105:10 0
*RES
1 *2070:Y *1105:10 40.5098 
2 *1105:10 *1965:A 34.4 
*END

*D_NET *1106 0.000189375
*CONN
*I *1987:A I *D BUFx3_ASAP7_75t_R
*I *2071:Y O *D BUFx3_ASAP7_75t_R
*CAP
1 *1987:A 0
2 *2071:Y 1.99687e-05
3 *1106:10 3.32558e-05
4 *1106:8 5.32245e-05
5 *1106:8 *1107:14 1.02506e-06
6 *1106:10 *1107:14 5.62089e-05
7 *1529:B *1106:10 0
8 *1608:A2 *1106:10 0
9 *1695:A *1106:10 1.64764e-06
10 *241:12 *1106:10 4.91942e-06
11 *258:8 *1106:10 1.09067e-06
12 *259:8 *1106:10 1.34329e-05
13 *609:10 *1106:10 4.60174e-06
14 *708:49 *1106:10 0
*RES
1 *2071:Y *1106:8 42.4224 
2 *1106:8 *1106:10 35.4795 
3 *1106:10 *1987:A 34.4 
*END

*D_NET *1107 0.000187582
*CONN
*I *2071:A I *D BUFx3_ASAP7_75t_R
*I *2072:Y O *D BUFx3_ASAP7_75t_R
*CAP
1 *2071:A 0
2 *2072:Y 3.25501e-05
3 *1107:14 2.05867e-05
4 *1107:8 5.31368e-05
5 *1695:A *1107:14 6.76305e-06
6 *133:12 *1107:8 7.72307e-07
7 *257:8 *1107:14 1.65386e-05
8 *1106:8 *1107:14 1.02506e-06
9 *1106:10 *1107:14 5.62089e-05
*RES
1 *2072:Y *1107:8 48.8403 
2 *1107:8 *1107:14 40.5979 
3 *1107:14 *2071:A 17.2 
*END

*D_NET *1108 0.000136606
*CONN
*I *1487:A I *D NAND2x1_ASAP7_75t_R
*I *2073:Y O *D BUFx3_ASAP7_75t_R
*CAP
1 *1487:A 1.45888e-05
2 *2073:Y 6.99763e-06
3 *1108:14 4.27707e-05
4 *1108:8 3.51796e-05
5 *1488:C *1108:8 0
6 *207:25 *1108:14 5.19552e-07
7 *209:14 *1108:8 0
8 *220:8 *1108:8 2.70815e-05
9 *575:10 *1487:A 5.06565e-06
10 *578:12 *1108:8 4.40221e-06
11 *591:8 *1487:A 0
*RES
1 *2073:Y *1108:8 43.4107 
2 *1108:8 *1108:14 46.701 
3 *1108:14 *1487:A 43.7188 
*END

*D_NET *1109 9.92825e-05
*CONN
*I *1290:B I *D NAND2x1_ASAP7_75t_R
*I *1287:B I *D OR2x2_ASAP7_75t_R
*I *2074:Y O *D BUFx3_ASAP7_75t_R
*CAP
1 *1290:B 0
2 *1287:B 3.38508e-05
3 *2074:Y 0
4 *1109:17 8.69973e-06
5 *1109:4 4.25505e-05
6 *2026:A *1109:17 0
7 *313:10 *1109:17 0
8 *454:8 *1287:B 9.75735e-06
9 *457:12 *1109:17 4.42421e-06
10 *1061:8 *1109:17 0
*RES
1 *2074:Y *1109:4 17.2 
2 *1109:4 *1287:B 38.593 
3 *1109:4 *1109:17 42.2843 
4 *1109:17 *1290:B 17.2 
*END

*D_NET *1110 6.5479e-05
*CONN
*I *1546:A I *D NAND2x1_ASAP7_75t_R
*I *2075:Y O *D BUFx3_ASAP7_75t_R
*CAP
1 *1546:A 1.26315e-05
2 *2075:Y 1.40058e-05
3 *1110:10 2.66372e-05
4 *1546:B *1546:A 7.46759e-06
5 *1546:B *1110:10 0
6 *241:27 *1110:10 4.73699e-06
7 *620:10 *1110:10 0
*RES
1 *2075:Y *1110:10 41.5795 
2 *1110:10 *1546:A 42.9572 
*END

*D_NET *1111 2.21025e-05
*CONN
*I *1289:A1 I *D OAI21x1_ASAP7_75t_R
*I *2076:Y O *D BUFx3_ASAP7_75t_R
*CAP
1 *1289:A1 0
2 *2076:Y 1.07267e-05
3 *1111:10 1.07267e-05
4 *803:14 *1111:10 6.49184e-07
*RES
1 *2076:Y *1111:10 40.5098 
2 *1111:10 *1289:A1 34.4 
*END

*D_NET *1112 0.000562448
*CONN
*I *1424:B I *D NOR2x2_ASAP7_75t_R
*I *2044:A I *D BUFx6f_ASAP7_75t_R
*I *1432:A1 I *D OA21x2_ASAP7_75t_R
*I *1428:B I *D NOR2x2_ASAP7_75t_R
*I *2045:A I *D BUFx6f_ASAP7_75t_R
*I *1426:B I *D NOR2x2_ASAP7_75t_R
*I *1427:A2 I *D AOI21x1_ASAP7_75t_R
*I *2077:Y O *D BUFx6f_ASAP7_75t_R
*CAP
1 *1424:B 0
2 *2044:A 0
3 *1432:A1 0
4 *1428:B 3.6332e-06
5 *2045:A 0
6 *1426:B 0
7 *1427:A2 4.62938e-06
8 *2077:Y 2.77706e-05
9 *1112:102 3.18797e-06
10 *1112:86 1.45417e-05
11 *1112:76 1.59559e-05
12 *1112:72 3.61087e-05
13 *1112:55 7.58159e-05
14 *1112:44 4.6041e-05
15 *1112:42 3.5936e-05
16 *1112:34 6.16236e-05
17 *1112:21 4.09401e-05
18 *1112:10 3.79346e-05
19 *1112:8 5.11881e-05
20 *1407:A *1428:B 2.20128e-06
21 *1411:B *1112:10 1.53071e-05
22 *1432:A2 *1112:86 3.46317e-06
23 *174:31 *1112:42 2.24111e-07
24 *198:10 *1112:102 1.96244e-06
25 *263:23 *1112:76 2.52755e-07
26 *263:23 *1112:86 1.02506e-06
27 *264:29 *1428:B 1.18806e-05
28 *264:29 *1112:55 1.38201e-06
29 *265:14 *1428:B 1.88621e-05
30 *265:14 *1112:55 3.04043e-06
31 *266:10 *1112:55 2.15252e-06
32 *297:12 *1112:42 0
33 *297:12 *1112:55 0
34 *297:16 *1112:55 0
35 *472:10 *1112:102 0
36 *528:8 *1112:10 3.36367e-06
37 *538:10 *1112:21 7.54709e-06
38 *541:8 *1112:86 0
39 *828:10 *1112:10 4.35885e-06
40 *831:18 *1112:34 1.00692e-05
41 *997:8 *1112:10 1.12894e-06
42 *1002:10 *1112:10 3.6269e-06
43 *1010:12 *1112:102 7.84037e-07
44 *1019:14 *1112:42 1.14301e-05
45 *1079:16 *1112:72 3.079e-06
46 *1092:10 *1112:86 0
47 *1094:10 *1112:10 0
48 *1094:10 *1112:21 0
*RES
1 *2077:Y *1112:8 46.701 
2 *1112:8 *1112:10 19.7108 
3 *1112:10 *1427:A2 37.0741 
4 *1112:10 *1112:21 9.01066 
5 *1112:21 *1426:B 34.4 
6 *1112:21 *1112:34 33.3411 
7 *1112:34 *1112:42 49.1165 
8 *1112:42 *1112:44 3.20895 
9 *1112:44 *2045:A 17.2 
10 *1112:44 *1112:55 48.0803 
11 *1112:55 *1428:B 40.6887 
12 *1112:55 *1112:72 47.553 
13 *1112:72 *1112:76 18.2696 
14 *1112:76 *1112:86 43.1839 
15 *1112:86 *1432:A1 17.2 
16 *1112:76 *2044:A 17.2 
17 *1112:34 *1112:102 37.122 
18 *1112:102 *1424:B 17.2 
*END

*D_NET *1113 0.000249794
*CONN
*I *1605:B I *D NOR2x2_ASAP7_75t_R
*I *1422:B I *D NOR2x2_ASAP7_75t_R
*I *1414:B I *D NOR2x2_ASAP7_75t_R
*I *1418:B I *D NOR2x2_ASAP7_75t_R
*I *2078:Y O *D BUFx6f_ASAP7_75t_R
*CAP
1 *1605:B 0
2 *1422:B 0
3 *1414:B 1.28241e-05
4 *1418:B 0
5 *2078:Y 4.12402e-06
6 *1113:27 3.08493e-05
7 *1113:16 4.3068e-05
8 *1113:10 4.45075e-05
9 *1113:8 2.35888e-05
10 *1418:A *1113:16 3.56648e-06
11 *1418:A *1113:27 7.29792e-06
12 *1717:A *1113:10 0
13 *1717:A *1113:16 0
14 *223:12 *1414:B 2.69965e-05
15 *223:12 *1113:27 3.03456e-05
16 *253:16 *1414:B 0
17 *253:16 *1113:10 0
18 *253:16 *1113:16 0
19 *253:16 *1113:27 0
20 *287:50 *1113:27 1.64348e-06
21 *288:25 *1414:B 1.02307e-05
22 *529:35 *1113:10 0
23 *651:10 *1113:10 0
24 *728:12 *1113:8 5.51397e-07
25 *1008:10 *1113:10 3.76935e-06
26 *1008:10 *1113:16 7.84037e-07
27 *1011:10 *1414:B 5.17782e-06
28 *1081:50 *1113:10 2.74606e-07
29 *1084:8 *1113:10 1.94229e-07
*RES
1 *2078:Y *1113:8 36.0045 
2 *1113:8 *1113:10 14.0792 
3 *1113:10 *1113:16 33.1067 
4 *1113:16 *1418:B 17.2 
5 *1113:16 *1113:27 33.2201 
6 *1113:27 *1414:B 48.2241 
7 *1113:27 *1422:B 34.4 
8 *1113:10 *1605:B 34.4 
*END

*D_NET *714 0.00021444
*CONN
*I *1581:A I *D INVx1_ASAP7_75t_R
*I *1338:A I *D AND2x2_ASAP7_75t_R
*I *1833:Y O *D BUFx2_ASAP7_75t_R
*CAP
1 *1581:A 2.71349e-05
2 *1338:A 1.21198e-05
3 *1833:Y 3.31377e-06
4 *714:16 4.37887e-05
5 *714:12 7.60975e-05
6 *714:8 2.06074e-05
7 *1581:A *724:6 6.92634e-06
8 *714:16 *725:8 9.41645e-07
9 *714:16 *870:25 9.19798e-06
10 *714:16 *879:27 0
11 *714:16 *1065:16 4.92648e-06
12 *1338:B *1338:A 2.88806e-06
13 *372:8 *714:16 6.4971e-06
*RES
1 *1833:Y *714:8 37.2158 
2 *714:8 *714:12 25.2224 
3 *714:12 *714:16 41.9793 
4 *714:16 *1338:A 40.8179 
5 *714:12 *1581:A 33.2448 
*END

*D_NET *1114 0.000149534
*CONN
*I *2013:A I *D BUFx3_ASAP7_75t_R
*I *2079:Y O *D BUFx3_ASAP7_75t_R
*CAP
1 *2013:A 1.87293e-05
2 *2079:Y 1.89931e-05
3 *1114:12 3.3174e-05
4 *1114:6 3.34378e-05
5 *1493:A *2013:A 2.0895e-06
6 *156:23 *1114:6 8.06588e-06
7 *459:72 *1114:12 1.09842e-06
8 *688:23 *1114:12 0
9 *690:10 *1114:6 1.4252e-05
10 *690:14 *1114:6 1.96943e-05
*RES
1 *2079:Y *1114:6 34.8492 
2 *1114:6 *1114:12 44.537 
3 *1114:12 *2013:A 27.3617 
*END

*D_NET *1115 0.000243967
*CONN
*I *1492:A2 I *D OA21x2_ASAP7_75t_R
*I *2080:Y O *D BUFx3_ASAP7_75t_R
*CAP
1 *1492:A2 0
2 *2080:Y 5.41636e-05
3 *1115:30 3.91428e-06
4 *1115:22 1.7482e-05
5 *1115:14 3.73291e-05
6 *1115:6 7.7925e-05
7 *1491:B *1115:6 8.146e-06
8 *1499:B *1115:14 5.05908e-06
9 *188:8 *1115:14 0
10 *479:14 *1115:14 1.64509e-05
11 *479:14 *1115:22 2.30873e-06
12 *480:18 *1115:14 5.69885e-06
13 *584:38 *1115:14 7.31606e-07
14 *584:57 *1115:22 1.0877e-05
15 *584:57 *1115:30 3.88115e-06
*RES
1 *2080:Y *1115:6 40.1975 
2 *1115:6 *1115:14 48.2241 
3 *1115:14 *1115:22 40.2228 
4 *1115:22 *1115:30 36.8776 
5 *1115:30 *1492:A2 17.2 
*END

*D_NET *1116 0.000132684
*CONN
*I *2014:A I *D BUFx3_ASAP7_75t_R
*I *2081:Y O *D BUFx3_ASAP7_75t_R
*CAP
1 *2014:A 0
2 *2081:Y 4.32414e-05
3 *1116:14 6.95388e-06
4 *1116:6 5.01953e-05
5 *1535:B *1116:6 7.54771e-06
6 *29:8 *1116:14 5.41446e-06
7 *30:8 *1116:14 5.85387e-06
8 *30:10 *1116:14 4.83862e-06
9 *131:21 *1116:6 5.41446e-06
10 *315:8 *1116:6 0
11 *612:94 *1116:6 1.59615e-06
12 *633:12 *1116:14 1.62854e-06
*RES
1 *2081:Y *1116:6 36.9885 
2 *1116:6 *1116:14 40.5098 
3 *1116:14 *2014:A 17.2 
*END

*D_NET *1117 0.000179272
*CONN
*I *1150:A I *D AND2x2_ASAP7_75t_R
*I *1147:A I *D NOR2x1_ASAP7_75t_R
*I *2082:Y O *D BUFx3_ASAP7_75t_R
*CAP
1 *1150:A 1.34556e-05
2 *1147:A 1.88978e-06
3 *2082:Y 4.34718e-06
4 *1117:26 1.44676e-05
5 *1117:14 4.33424e-05
6 *1117:8 2.16562e-05
7 *1147:B *1150:A 9.70123e-06
8 *1149:B *1147:A 5.41446e-06
9 *1150:B *1150:A 9.67723e-06
10 *1151:A1 *1150:A 2.03526e-06
11 *1151:B *1150:A 1.60115e-05
12 *2082:A *1117:14 5.17782e-06
13 *32:8 *1117:26 6.41585e-07
14 *359:8 *1117:14 1.11142e-05
15 *360:8 *1150:A 2.03399e-05
16 *362:10 *1150:A 0
17 *364:8 *1117:26 0
*RES
1 *2082:Y *1117:8 37.2158 
2 *1117:8 *1117:14 47.7706 
3 *1117:14 *1117:26 38.6503 
4 *1117:26 *1147:A 36.0045 
5 *1117:14 *1150:A 48.6934 
*END

*D_NET *715 0.000106429
*CONN
*I *1360:A I *D AND2x2_ASAP7_75t_R
*I *1317:A I *D INVx1_ASAP7_75t_R
*I *1834:Y O *D BUFx2_ASAP7_75t_R
*CAP
1 *1360:A 3.17588e-06
2 *1317:A 0
3 *1834:Y 5.00668e-06
4 *715:17 3.14752e-05
5 *715:6 3.3306e-05
6 *715:6 *725:12 3.73144e-06
7 *715:17 *724:10 0
8 *715:17 *725:12 8.146e-06
9 *715:17 *725:18 1.29294e-05
10 *373:20 *1360:A 8.65792e-06
*RES
1 *1834:Y *715:6 19.8741 
2 *715:6 *1317:A 17.2 
3 *715:6 *715:17 36.0359 
4 *715:17 *1360:A 37.0741 
*END

*D_NET *716 0.000291562
*CONN
*I *1177:A I *D INVx1_ASAP7_75t_R
*I *1349:B I *D AND2x2_ASAP7_75t_R
*I *1835:Y O *D BUFx2_ASAP7_75t_R
*CAP
1 *1177:A 0
2 *1349:B 0
3 *1835:Y 8.10126e-07
4 *716:38 2.26478e-05
5 *716:32 2.58698e-05
6 *716:28 8.17365e-05
7 *716:18 8.46343e-05
8 *716:8 6.92995e-06
9 *716:8 *1065:16 1.10902e-06
10 *716:28 *869:17 1.20501e-05
11 *371:24 *716:28 3.0362e-06
12 *371:45 *716:8 4.26751e-07
13 *371:61 *716:38 3.23943e-06
14 *373:12 *716:38 0
15 *373:14 *716:38 1.95129e-06
16 *373:20 *716:38 1.25483e-05
17 *488:10 *716:38 2.98302e-05
18 *489:10 *716:38 4.74248e-06
*RES
1 *1835:Y *716:8 35.2447 
2 *716:8 *716:18 42.5556 
3 *716:18 *716:28 40.9588 
4 *716:28 *716:32 18.9834 
5 *716:32 *716:38 36.6841 
6 *716:38 *1349:B 17.2 
7 *716:32 *1177:A 34.4 
*END

*D_NET *681 7.46415e-05
*CONN
*I *1474:A I *D INVx3_ASAP7_75t_R
*I *1412:Y O *D BUFx6f_ASAP7_75t_R
*CAP
1 *1474:A 1.81014e-05
2 *1412:Y 1.81723e-05
3 *681:8 3.62737e-05
4 *681:8 *956:27 9.24628e-07
5 *137:12 *1474:A 1.16945e-06
*RES
1 *1412:Y *681:8 46.2265 
2 *681:8 *1474:A 41.3527 
*END

*D_NET *717 0.00058032
*CONN
*I *1185:A I *D INVx1_ASAP7_75t_R
*I *1836:Y O *D BUFx2_ASAP7_75t_R
*CAP
1 *1185:A 4.54056e-06
2 *1836:Y 4.34394e-06
3 *717:32 3.33821e-05
4 *717:24 7.44921e-05
5 *717:16 7.46391e-05
6 *717:8 3.33325e-05
7 *717:16 *761:18 0
8 *717:16 *863:25 2.30451e-05
9 *717:32 *1019:8 2.41931e-06
10 *700:8 *717:8 1.56475e-06
11 *700:16 *717:16 4.25578e-05
12 *700:20 *717:24 0.000244371
13 *700:30 *717:32 1.67299e-06
14 *710:16 *717:16 0
15 *712:18 *717:16 3.46919e-06
16 *712:28 *717:24 3.64893e-05
*RES
1 *1836:Y *717:8 37.6851 
2 *717:8 *717:16 42.1459 
3 *717:16 *717:24 48.3467 
4 *717:24 *717:32 38.7728 
5 *717:32 *1185:A 36.0045 
*END

*D_NET *718 0.000108134
*CONN
*I *1215:A I *D INVx1_ASAP7_75t_R
*I *1345:B I *D AND2x2_ASAP7_75t_R
*I *1837:Y O *D BUFx2_ASAP7_75t_R
*CAP
1 *1215:A 1.65378e-05
2 *1345:B 4.57478e-06
3 *1837:Y 1.52615e-05
4 *718:10 3.11208e-05
5 *718:8 2.52698e-05
6 *1345:A *1215:A 1.49407e-08
7 *1345:A *718:10 2.68933e-07
8 *1458:A *718:10 0
9 *180:8 *718:10 5.97901e-06
10 *373:78 *1215:A 2.71921e-06
11 *481:8 *1215:A 0
12 *481:8 *718:10 0
13 *482:10 *718:10 1.12894e-06
14 *482:14 *718:8 5.25794e-06
*RES
1 *1837:Y *718:8 41.3527 
2 *718:8 *718:10 9.01066 
3 *718:10 *1345:B 36.0045 
4 *718:10 *1215:A 46.2265 
*END

*D_NET *719 0.00013551
*CONN
*I *1182:A I *D INVx2_ASAP7_75t_R
*I *1175:B I *D AND2x2_ASAP7_75t_R
*I *1838:Y O *D BUFx2_ASAP7_75t_R
*CAP
1 *1182:A 8.95623e-06
2 *1175:B 0
3 *1838:Y 3.76351e-06
4 *719:14 2.72636e-05
5 *719:8 3.99833e-05
6 *1182:A *1625:A 0
7 *719:8 *727:10 8.19411e-06
8 *719:14 *2065:A 1.28869e-05
9 *719:14 *727:10 1.85969e-05
10 *719:14 *1100:8 0
11 *364:47 *719:14 0
12 *371:6 *719:14 7.14604e-06
13 *373:68 *719:14 8.29207e-07
14 *373:74 *719:14 7.89056e-06
*RES
1 *1838:Y *719:8 37.779 
2 *719:8 *719:14 40.1764 
3 *719:14 *1175:B 17.2 
4 *719:8 *1182:A 38.1438 
*END

*D_NET *720 0.000122484
*CONN
*I *1191:A I *D INVx2_ASAP7_75t_R
*I *1171:A I *D AND2x2_ASAP7_75t_R
*I *1839:Y O *D BUFx3_ASAP7_75t_R
*CAP
1 *1191:A 1.39645e-05
2 *1171:A 1.48805e-06
3 *1839:Y 3.63113e-05
4 *720:8 5.17638e-05
5 *1171:A *729:53 5.09995e-06
6 *1191:A *729:53 9.67723e-06
7 *1191:A *1036:12 4.17901e-06
*RES
1 *1839:Y *720:8 48.8403 
2 *720:8 *1171:A 36.0895 
3 *720:8 *1191:A 42.5924 
*END

*D_NET *721 0.000530152
*CONN
*I *1587:A I *D INVx5_ASAP7_75t_R
*I *1315:A I *D AND2x2_ASAP7_75t_R
*I *1840:Y O *D BUFx12f_ASAP7_75t_R
*CAP
1 *1587:A 0
2 *1315:A 9.19881e-06
3 *1840:Y 8.74808e-06
4 *721:45 3.419e-05
5 *721:30 2.10017e-05
6 *721:24 9.98809e-05
7 *721:22 6.6312e-05
8 *721:16 3.68955e-05
9 *721:8 3.32195e-05
10 *721:8 *730:8 2.0055e-06
11 *721:8 *764:8 2.67979e-05
12 *721:8 *884:29 0
13 *721:22 *730:16 0
14 *721:24 *811:8 2.83874e-07
15 *721:45 *874:31 0
16 *1601:C *721:30 5.0551e-07
17 *1601:C *721:45 2.66045e-05
18 *1642:A *721:24 0
19 *65:21 *721:24 9.23796e-06
20 *95:8 *1315:A 1.64764e-06
21 *95:8 *721:24 0
22 *96:10 *721:24 0
23 *98:8 *721:24 6.72417e-07
24 *236:8 *721:45 0
25 *237:18 *721:16 4.63682e-05
26 *237:28 *721:24 1.0336e-06
27 *237:45 *721:45 0
28 *238:27 *721:24 7.89306e-06
29 *387:34 *721:24 0
30 *390:12 *721:22 2.55227e-06
31 *390:18 *721:24 1.64348e-06
32 *394:10 *721:24 1.19384e-05
33 *398:112 *721:24 1.49407e-08
34 *398:125 *721:16 2.04351e-05
35 *398:125 *721:22 0
36 *399:32 *721:8 1.49407e-08
37 *470:8 *721:45 1.32428e-05
38 *471:12 *1315:A 7.24542e-06
39 *542:12 *721:24 2.21652e-06
40 *553:10 *721:24 0
41 *556:124 *721:24 5.66897e-06
42 *557:118 *1315:A 0
43 *557:126 *1315:A 1.15587e-05
44 *557:126 *721:30 5.17782e-06
45 *558:10 *1315:A 0
46 *649:8 *721:24 1.40384e-05
47 *649:8 *721:45 1.908e-06
*RES
1 *1840:Y *721:8 43.5045 
2 *721:8 *721:16 40.1878 
3 *721:16 *721:22 32.3007 
4 *721:22 *721:24 43.0822 
5 *721:24 *721:30 40.2831 
6 *721:30 *1315:A 44.537 
7 *721:24 *721:45 44.7101 
8 *721:45 *1587:A 17.2 
*END

*D_NET *722 0.00010966
*CONN
*I *1615:B I *D HAxp5_ASAP7_75t_R
*I *2030:A I *D BUFx3_ASAP7_75t_R
*I *1841:Y O *D BUFx2_ASAP7_75t_R
*CAP
1 *1615:B 0
2 *2030:A 3.00225e-06
3 *1841:Y 8.40482e-06
4 *722:23 3.68266e-05
5 *722:8 4.82337e-05
6 *722:23 *867:27 0
7 *1214:A *722:23 4.17901e-06
8 *1615:A *722:23 3.73144e-06
9 *713:6 *722:23 5.28264e-06
*RES
1 *1841:Y *722:8 37.0741 
2 *722:8 *2030:A 36.0895 
3 *722:8 *722:23 41.0157 
4 *722:23 *1615:B 17.2 
*END

*D_NET *723 0.000145557
*CONN
*I *1667:B I *D HAxp5_ASAP7_75t_R
*I *1337:A I *D AND2x2_ASAP7_75t_R
*I *1842:Y O *D BUFx2_ASAP7_75t_R
*CAP
1 *1667:B 9.04855e-06
2 *1337:A 0
3 *1842:Y 2.56947e-06
4 *723:16 1.4844e-05
5 *723:12 4.12813e-05
6 *723:8 1.99582e-05
7 *723:8 *1065:10 8.46363e-06
8 *723:12 *1213:A 5.51397e-07
9 *723:16 *869:27 0
10 *723:16 *1102:12 4.88402e-05
11 *162:8 *723:16 0
*RES
1 *1842:Y *723:8 37.2158 
2 *723:8 *723:12 26.292 
3 *723:12 *723:16 33.5318 
4 *723:16 *1337:A 34.4 
5 *723:12 *1667:B 22.5483 
*END

*D_NET *724 0.000108045
*CONN
*I *1696:B I *D HAxp5_ASAP7_75t_R
*I *1359:A I *D AND2x2_ASAP7_75t_R
*I *1843:Y O *D BUFx2_ASAP7_75t_R
*CAP
1 *1696:B 2.81478e-06
2 *1359:A 2.06505e-06
3 *1843:Y 1.999e-05
4 *724:10 2.55779e-05
5 *724:6 4.63176e-05
6 *724:10 *725:18 0
7 *724:10 *869:27 0
8 *1581:A *724:6 6.92634e-06
9 *260:10 *724:10 4.10928e-06
10 *371:24 *724:10 2.43887e-07
11 *477:12 *724:10 0
12 *715:17 *724:10 0
*RES
1 *1843:Y *724:6 29.501 
2 *724:6 *724:10 33.5318 
3 *724:10 *1359:A 35.4697 
4 *724:6 *1696:B 18.8045 
*END

*D_NET *725 0.000180003
*CONN
*I *1627:B I *D HAxp5_ASAP7_75t_R
*I *2066:A I *D BUFx3_ASAP7_75t_R
*I *1844:Y O *D BUFx2_ASAP7_75t_R
*CAP
1 *1627:B 2.73578e-06
2 *2066:A 0
3 *1844:Y 3.83783e-06
4 *725:18 8.65116e-06
5 *725:12 6.92815e-05
6 *725:10 5.78946e-05
7 *725:8 3.83783e-06
8 *725:12 *1835:A 2.12481e-06
9 *260:10 *725:12 3.68565e-06
10 *371:45 *725:12 2.20493e-06
11 *714:16 *725:8 9.41645e-07
12 *715:6 *725:12 3.73144e-06
13 *715:17 *725:12 8.146e-06
14 *715:17 *725:18 1.29294e-05
15 *724:10 *725:18 0
*RES
1 *1844:Y *725:8 37.2158 
2 *725:8 *725:10 17.2 
3 *725:10 *725:12 36.9029 
4 *725:12 *725:18 41.158 
5 *725:18 *2066:A 17.2 
6 *725:12 *1627:B 18.8045 
*END

*D_NET *726 0.000297122
*CONN
*I *1614:B I *D HAxp5_ASAP7_75t_R
*I *2029:A I *D BUFx3_ASAP7_75t_R
*I *1845:Y O *D BUFx2_ASAP7_75t_R
*CAP
1 *1614:B 9.06373e-06
2 *2029:A 0
3 *1845:Y 1.74906e-06
4 *726:36 2.61143e-05
5 *726:30 3.5178e-05
6 *726:28 5.48873e-05
7 *726:18 6.72811e-05
8 *726:8 1.41428e-05
9 *726:28 *873:13 4.88056e-05
10 *1999:A *726:8 0
11 *22:12 *726:36 0
12 *50:8 *726:36 2.34999e-06
13 *356:8 *726:36 0
14 *356:28 *726:28 3.75504e-05
*RES
1 *1845:Y *726:8 35.4325 
2 *726:8 *726:18 45.2818 
3 *726:18 *726:28 45.8514 
4 *726:28 *726:30 17.2 
5 *726:30 *726:36 35.4355 
6 *726:36 *2029:A 17.2 
7 *726:30 *1614:B 39.364 
*END

*D_NET *682 2.12656e-05
*CONN
*I *1318:A I *D INVx8_ASAP7_75t_R
*I *1383:Y O *D BUFx12f_ASAP7_75t_R
*CAP
1 *1318:A 0
2 *1383:Y 1.06328e-05
3 *682:10 1.06328e-05
*RES
1 *1383:Y *682:10 39.3835 
2 *682:10 *1318:A 34.4 
*END

*D_NET *727 0.000235324
*CONN
*I *1625:A I *D HAxp5_ASAP7_75t_R
*I *2065:A I *D BUFx3_ASAP7_75t_R
*I *1846:Y O *D BUFx2_ASAP7_75t_R
*CAP
1 *1625:A 2.38046e-05
2 *2065:A 1.27231e-05
3 *1846:Y 3.89671e-05
4 *727:10 5.61848e-05
5 *727:6 5.86242e-05
6 *727:10 *873:25 0
7 *1182:A *1625:A 0
8 *1625:B *1625:A 5.34278e-06
9 *719:8 *727:10 8.19411e-06
10 *719:14 *2065:A 1.28869e-05
11 *719:14 *727:10 1.85969e-05
*RES
1 *1846:Y *727:6 35.9189 
2 *727:6 *727:10 34.6581 
3 *727:10 *2065:A 42.6491 
4 *727:10 *1625:A 45.6313 
*END

*D_NET *728 0.000219317
*CONN
*I *1321:A I *D INVx1_ASAP7_75t_R
*I *1847:Y O *D BUFx2_ASAP7_75t_R
*CAP
1 *1321:A 0
2 *1847:Y 7.78465e-06
3 *728:18 8.53792e-06
4 *728:12 7.75708e-05
5 *728:10 6.90329e-05
6 *728:8 7.78465e-06
7 *728:8 *882:25 7.82377e-07
8 *728:12 *1113:8 5.51397e-07
9 *2054:A *728:12 3.65131e-06
10 *174:8 *728:18 4.10928e-06
11 *198:10 *728:18 0
12 *223:10 *728:8 1.091e-06
13 *253:8 *728:8 0
14 *253:12 *728:12 5.09299e-06
15 *689:12 *728:12 3.33273e-05
*RES
1 *1847:Y *728:8 40.0317 
2 *728:8 *728:10 17.2 
3 *728:10 *728:12 45.4601 
4 *728:12 *728:18 40.0317 
5 *728:18 *1321:A 17.2 
*END

*D_NET *729 0.000469834
*CONN
*I *1618:A I *D HAxp5_ASAP7_75t_R
*I *1170:A I *D AND2x4_ASAP7_75t_R
*I *1848:Y O *D BUFx2_ASAP7_75t_R
*CAP
1 *1618:A 0
2 *1170:A 0
3 *1848:Y 1.26599e-06
4 *729:53 3.07771e-05
5 *729:42 3.22384e-05
6 *729:36 1.09559e-05
7 *729:24 0.000139348
8 *729:20 0.000144647
9 *729:8 1.60592e-05
10 *729:8 *883:31 4.93044e-07
11 *729:8 *909:29 0
12 *729:24 *730:24 0
13 *729:24 *872:13 0
14 *729:24 *874:13 0
15 *729:24 *884:21 0
16 *729:24 *963:24 5.16993e-05
17 *729:53 *730:48 0
18 *729:53 *1036:18 0
19 *1171:A *729:53 5.09995e-06
20 *1191:A *729:53 9.67723e-06
21 *1314:B *729:53 2.03526e-06
22 *31:10 *729:53 0
23 *33:10 *729:53 4.97654e-06
24 *292:10 *729:53 0
25 *373:104 *729:42 2.48278e-06
26 *373:104 *729:53 1.09842e-06
27 *378:8 *729:42 7.47402e-07
28 *378:8 *729:53 1.62323e-05
29 *399:38 *729:20 0
30 *557:106 *729:36 0
*RES
1 *1848:Y *729:8 35.4325 
2 *729:8 *729:20 44.4671 
3 *729:20 *729:24 45.4283 
4 *729:24 *729:36 34.1963 
5 *729:36 *729:42 36.1834 
6 *729:42 *1170:A 17.2 
7 *729:42 *729:53 42.4574 
8 *729:53 *1618:A 34.4 
*END

*D_NET *730 0.000456373
*CONN
*I *1314:A I *D AND2x2_ASAP7_75t_R
*I *1706:B I *D HAxp5_ASAP7_75t_R
*I *1849:Y O *D BUFx2_ASAP7_75t_R
*CAP
1 *1314:A 0
2 *1706:B 0
3 *1849:Y 3.43525e-06
4 *730:48 3.12248e-05
5 *730:42 3.32957e-05
6 *730:36 1.33625e-05
7 *730:24 7.44865e-05
8 *730:16 9.96334e-05
9 *730:8 3.98737e-05
10 *730:8 *764:8 3.72571e-06
11 *730:24 *874:13 8.96595e-05
12 *730:36 *874:25 3.64861e-06
13 *730:48 *874:31 1.12039e-05
14 *1314:B *730:48 5.19552e-07
15 *292:10 *730:48 7.84037e-07
16 *378:8 *730:48 0
17 *387:24 *730:24 2.28535e-05
18 *398:125 *730:16 2.59259e-05
19 *399:36 *730:16 7.34629e-07
20 *721:8 *730:8 2.0055e-06
21 *721:22 *730:16 0
22 *729:24 *730:24 0
23 *729:53 *730:48 0
*RES
1 *1849:Y *730:8 38.0606 
2 *730:8 *730:16 41.9286 
3 *730:16 *730:24 45.2407 
4 *730:24 *730:36 34.5952 
5 *730:36 *730:42 35.4325 
6 *730:42 *730:48 40.5412 
7 *730:48 *1706:B 34.4 
8 *730:42 *1314:A 17.2 
*END

*D_NET *731 0.000127358
*CONN
*I *1216:A I *D INVx1_ASAP7_75t_R
*I *2028:A I *D BUFx3_ASAP7_75t_R
*I *1850:Y O *D BUFx2_ASAP7_75t_R
*CAP
1 *1216:A 0
2 *2028:A 2.63877e-05
3 *1850:Y 0
4 *731:23 3.49352e-05
5 *731:6 6.1323e-05
6 *88:8 *2028:A 4.7125e-06
*RES
1 *1850:Y *731:6 34.4 
2 *731:6 *2028:A 49.5168 
3 *731:6 *731:23 32.88 
4 *731:23 *1216:A 17.2 
*END

*D_NET *732 0.000185761
*CONN
*I *2027:A I *D BUFx3_ASAP7_75t_R
*I *1328:A I *D INVx1_ASAP7_75t_R
*I *1851:Y O *D BUFx2_ASAP7_75t_R
*CAP
1 *2027:A 1.77287e-05
2 *1328:A 0
3 *1851:Y 8.13061e-06
4 *732:10 4.43781e-05
5 *732:8 3.47799e-05
6 *732:10 *1063:8 0
7 *1:8 *732:10 0
8 *87:6 *2027:A 4.44181e-05
9 *210:8 *2027:A 7.64042e-07
10 *210:8 *732:10 4.87385e-06
11 *211:8 *732:10 3.01746e-05
12 *212:16 *732:10 5.13209e-07
*RES
1 *1851:Y *732:8 39.2134 
2 *732:8 *732:10 23.653 
3 *732:10 *1328:A 34.4 
4 *732:10 *2027:A 48.4472 
*END

*D_NET *733 0.000148852
*CONN
*I *1393:B I *D OA21x2_ASAP7_75t_R
*I *1594:A I *D INVx1_ASAP7_75t_R
*I *1852:Y O *D BUFx2_ASAP7_75t_R
*CAP
1 *1393:B 0
2 *1594:A 0
3 *1852:Y 3.15657e-05
4 *733:21 2.03375e-05
5 *733:10 2.58356e-05
6 *733:8 3.70639e-05
7 *733:8 *734:8 8.39579e-06
8 *733:10 *734:10 0
9 *733:10 *896:29 0
10 *733:21 *734:10 0
11 *733:21 *742:8 1.45651e-06
12 *733:21 *896:29 0
13 *733:21 *1026:38 1.65979e-06
14 *87:12 *733:21 3.56395e-06
15 *505:10 *733:21 1.89733e-05
*RES
1 *1852:Y *733:8 48.8403 
2 *733:8 *733:10 3.379 
3 *733:10 *1594:A 34.4 
4 *733:10 *733:21 36.9108 
5 *733:21 *1393:B 17.2 
*END

*D_NET *734 0.000260336
*CONN
*I *1391:B I *D OA21x2_ASAP7_75t_R
*I *1178:A I *D INVx1_ASAP7_75t_R
*I *1853:Y O *D BUFx2_ASAP7_75t_R
*CAP
1 *1391:B 0
2 *1178:A 8.35621e-06
3 *1853:Y 1.82953e-05
4 *734:25 2.19499e-05
5 *734:10 4.41893e-05
6 *734:8 3.21786e-05
7 *734:8 *743:8 1.1364e-05
8 *734:10 *742:25 2.45021e-07
9 *734:10 *743:10 3.4921e-05
10 *734:25 *1391:A2 2.6095e-06
11 *734:25 *1392:A1 6.76344e-06
12 *734:25 *743:10 2.95882e-05
13 *734:25 *743:25 1.27797e-05
14 *734:25 *1026:24 1.70466e-06
15 *1381:A1 *1178:A 5.85387e-06
16 *92:10 *1178:A 0
17 *92:10 *734:25 3.75158e-06
18 *94:12 *734:10 0
19 *178:8 *734:10 1.29259e-05
20 *178:8 *734:25 3.11867e-06
21 *500:10 *1178:A 9.425e-07
22 *500:10 *734:25 4.03043e-07
23 *733:8 *734:8 8.39579e-06
24 *733:10 *734:10 0
25 *733:21 *734:10 0
*RES
1 *1853:Y *734:8 49.9099 
2 *734:8 *734:10 14.0792 
3 *734:10 *1178:A 38.1438 
4 *734:10 *734:25 38.5153 
5 *734:25 *1391:B 17.2 
*END

*D_NET *735 0.000246524
*CONN
*I *1592:A I *D INVx1_ASAP7_75t_R
*I *1389:B I *D OA21x2_ASAP7_75t_R
*I *1854:Y O *D BUFx2_ASAP7_75t_R
*CAP
1 *1592:A 0
2 *1389:B 0
3 *1854:Y 8.39469e-06
4 *735:26 4.29911e-05
5 *735:20 5.9728e-05
6 *735:12 4.98161e-05
7 *735:8 4.14739e-05
8 *735:12 *736:8 7.31915e-06
9 *735:12 *745:18 0
10 *735:12 *745:26 1.57407e-05
11 *735:12 *747:10 0
12 *735:12 *890:27 4.22483e-06
13 *735:12 *901:27 0
14 *735:20 *1709:B 9.13667e-07
15 *735:20 *747:10 8.45637e-06
16 *735:26 *738:10 3.95007e-06
17 *735:26 *746:26 0
18 *735:26 *892:37 0
19 *216:10 *735:20 3.51548e-06
*RES
1 *1854:Y *735:8 38.1438 
2 *735:8 *735:12 43.1056 
3 *735:12 *735:20 45.2382 
4 *735:20 *735:26 37.3286 
5 *735:26 *1389:B 34.4 
6 *735:20 *1592:A 17.2 
*END

*D_NET *736 0.000200947
*CONN
*I *1358:A I *D INVx1_ASAP7_75t_R
*I *1387:B I *D OA21x2_ASAP7_75t_R
*I *1855:Y O *D BUFx2_ASAP7_75t_R
*CAP
1 *1358:A 0
2 *1387:B 0
3 *1855:Y 8.08006e-06
4 *736:26 4.82617e-05
5 *736:20 7.11298e-05
6 *736:12 3.03263e-05
7 *736:8 1.55383e-05
8 *736:8 *745:18 1.18037e-06
9 *736:20 *747:8 7.25585e-06
10 *736:26 *737:51 4.98627e-06
11 *736:26 *744:18 0
12 *736:26 *745:55 3.1168e-07
13 *736:26 *746:20 0
14 *736:26 *892:29 3.74016e-08
15 *1385:A2 *736:26 1.42636e-06
16 *224:8 *736:20 2.90209e-08
17 *301:8 *736:12 2.741e-06
18 *330:10 *736:26 1.55629e-06
19 *512:8 *736:20 7.67375e-07
20 *735:12 *736:8 7.31915e-06
*RES
1 *1855:Y *736:8 41.158 
2 *736:8 *736:12 21.4786 
3 *736:12 *736:20 48.456 
4 *736:20 *736:26 34.4366 
5 *736:26 *1387:B 34.4 
6 *736:12 *1358:A 17.2 
*END

*D_NET *683 0.000239249
*CONN
*I *1665:B I *D HAxp5_ASAP7_75t_R
*I *2026:A I *D BUFx3_ASAP7_75t_R
*I *1294:Y O *D BUFx2_ASAP7_75t_R
*CAP
1 *1665:B 1.60244e-05
2 *2026:A 7.03844e-06
3 *1294:Y 3.96271e-06
4 *683:14 2.30629e-05
5 *683:12 8.59323e-05
6 *683:8 8.9895e-05
7 *2026:A *1295:A 0
8 *2026:A *2038:A 0
9 *2026:A *1109:17 0
10 *683:8 *691:10 0
11 *683:8 *845:27 1.01458e-06
12 *683:12 *801:18 6.72062e-06
13 *683:12 *845:27 2.69317e-06
14 *683:12 *1020:20 1.10955e-07
15 *449:23 *1665:B 2.79435e-06
16 *457:12 *1665:B 0
17 *457:12 *2026:A 0
*RES
1 *1294:Y *683:8 36.7465 
2 *683:8 *683:12 46.2027 
3 *683:12 *683:14 17.2 
4 *683:14 *2026:A 39.3746 
5 *683:14 *1665:B 44.8256 
*END

*D_NET *737 0.000336645
*CONN
*I *1385:B I *D OA21x2_ASAP7_75t_R
*I *1330:A I *D INVx1_ASAP7_75t_R
*I *1856:Y O *D BUFx2_ASAP7_75t_R
*CAP
1 *1385:B 0
2 *1330:A 0
3 *1856:Y 4.00145e-06
4 *737:51 3.89965e-06
5 *737:34 3.59145e-05
6 *737:24 0.000108892
7 *737:18 9.25422e-05
8 *737:8 2.74663e-05
9 *737:18 *745:12 6.18758e-07
10 *737:18 *745:43 2.07902e-07
11 *737:18 *890:19 2.66911e-06
12 *737:24 *745:43 1.3995e-05
13 *737:24 *747:41 0
14 *737:24 *892:29 1.77734e-06
15 *737:24 *901:17 3.13448e-05
16 *737:34 *746:26 4.35885e-06
17 *737:34 *747:29 2.01104e-06
18 *737:34 *892:29 0
19 *737:51 *746:26 1.96009e-06
20 *736:26 *737:51 4.98627e-06
*RES
1 *1856:Y *737:8 36.9342 
2 *737:8 *737:18 49.2642 
3 *737:18 *737:24 29.2858 
4 *737:24 *737:34 46.1082 
5 *737:34 *1330:A 34.4 
6 *737:24 *737:51 48.5278 
7 *737:51 *1385:B 17.2 
*END

*D_NET *738 0.000153721
*CONN
*I *1603:B I *D OA21x2_ASAP7_75t_R
*I *1347:A I *D INVx5_ASAP7_75t_R
*I *1857:Y O *D BUFx12f_ASAP7_75t_R
*CAP
1 *1603:B 1.55652e-05
2 *1347:A 7.80959e-06
3 *1857:Y 4.03451e-05
4 *738:10 3.26978e-05
5 *738:6 4.96681e-05
6 *1347:A *746:26 0
7 *738:6 *892:37 1.04475e-06
8 *738:10 *746:26 0
9 *650:10 *1603:B 2.6409e-06
10 *735:26 *738:10 3.95007e-06
*RES
1 *1857:Y *738:6 34.8492 
2 *738:6 *738:10 23.958 
3 *738:10 *1347:A 40.0317 
4 *738:10 *1603:B 43.492 
*END

*D_NET *739 9.19692e-05
*CONN
*I *1219:A I *D INVx1_ASAP7_75t_R
*I *1858:Y O *D BUFx2_ASAP7_75t_R
*CAP
1 *1219:A 0
2 *1858:Y 4.59846e-05
3 *739:6 4.59846e-05
*RES
1 *1858:Y *739:6 39.1278 
2 *739:6 *1219:A 17.2 
*END

*D_NET *740 0.000177618
*CONN
*I *1638:B I *D HAxp5_ASAP7_75t_R
*I *1398:A1 I *D AO21x1_ASAP7_75t_R
*I *1190:A I *D INVx1_ASAP7_75t_R
*I *1859:Y O *D BUFx2_ASAP7_75t_R
*CAP
1 *1638:B 0
2 *1398:A1 0
3 *1190:A 0
4 *1859:Y 1.22675e-05
5 *740:25 2.61983e-05
6 *740:21 7.14186e-05
7 *740:8 5.74877e-05
8 *740:25 *1396:A1 0
9 *740:25 *1398:A2 2.43534e-06
10 *740:25 *1016:24 6.72332e-07
11 *740:25 *1016:48 0
12 *740:25 *1054:8 5.97901e-06
13 *1639:B *740:8 0
14 *2019:A *740:25 1.15945e-06
*RES
1 *1859:Y *740:8 43.4107 
2 *740:8 *1190:A 34.4 
3 *740:8 *740:21 44.7631 
4 *740:21 *740:25 38.6003 
5 *740:25 *1398:A1 34.4 
6 *740:21 *1638:B 17.2 
*END

*D_NET *741 6.34094e-05
*CONN
*I *1396:A1 I *D AO21x1_ASAP7_75t_R
*I *1681:B I *D HAxp5_ASAP7_75t_R
*I *1860:Y O *D BUFx2_ASAP7_75t_R
*CAP
1 *1396:A1 1.60385e-05
2 *1681:B 1.56662e-05
3 *1860:Y 0
4 *741:6 3.17047e-05
5 *740:25 *1396:A1 0
*RES
1 *1860:Y *741:6 34.4 
2 *741:6 *1681:B 44.2819 
3 *741:6 *1396:A1 46.2265 
*END

*D_NET *742 0.000195136
*CONN
*I *1672:B I *D HAxp5_ASAP7_75t_R
*I *1394:A1 I *D AO21x1_ASAP7_75t_R
*I *1861:Y O *D BUFx2_ASAP7_75t_R
*CAP
1 *1672:B 4.83032e-06
2 *1394:A1 3.56828e-06
3 *1861:Y 0
4 *742:25 3.63589e-05
5 *742:8 3.33615e-05
6 *742:4 6.13218e-05
7 *742:8 *1016:61 3.58577e-07
8 *742:8 *1026:38 2.25481e-06
9 *742:8 *1027:49 1.62477e-05
10 *742:8 *1062:8 0
11 *1672:A *742:25 0
12 *87:12 *742:8 2.32031e-05
13 *178:8 *742:25 4.84697e-07
14 *505:6 *742:25 1.14451e-05
15 *514:10 *742:8 0
16 *733:21 *742:8 1.45651e-06
17 *734:10 *742:25 2.45021e-07
*RES
1 *1861:Y *742:4 17.2 
2 *742:4 *742:8 41.9793 
3 *742:8 *1394:A1 36.0045 
4 *742:4 *742:25 48.5038 
5 *742:25 *1672:B 19.8741 
*END

*D_NET *743 0.000252491
*CONN
*I *1392:A1 I *D AO21x1_ASAP7_75t_R
*I *1641:B I *D HAxp5_ASAP7_75t_R
*I *1862:Y O *D BUFx2_ASAP7_75t_R
*CAP
1 *1392:A1 1.53753e-05
2 *1641:B 0
3 *1862:Y 1.71284e-05
4 *743:25 2.92561e-05
5 *743:10 3.40454e-05
6 *743:8 3.7293e-05
7 *1392:A1 *1391:A2 0
8 *1392:A1 *1016:16 4.39947e-06
9 *743:25 *1026:24 1.60548e-05
10 *94:12 *743:10 0
11 *94:25 *743:10 2.56604e-06
12 *179:10 *743:10 0
13 *298:10 *1392:A1 0
14 *500:18 *743:10 3.88042e-07
15 *514:10 *1392:A1 5.67747e-07
16 *734:8 *743:8 1.1364e-05
17 *734:10 *743:10 3.4921e-05
18 *734:25 *1392:A1 6.76344e-06
19 *734:25 *743:10 2.95882e-05
20 *734:25 *743:25 1.27797e-05
*RES
1 *1862:Y *743:8 43.492 
2 *743:8 *743:10 21.4003 
3 *743:10 *1641:B 34.4 
4 *743:10 *743:25 43.2123 
5 *743:25 *1392:A1 47.3528 
*END

*D_NET *744 0.000371882
*CONN
*I *1683:B I *D HAxp5_ASAP7_75t_R
*I *1390:A1 I *D AO21x1_ASAP7_75t_R
*I *1863:Y O *D BUFx2_ASAP7_75t_R
*CAP
1 *1683:B 0
2 *1390:A1 0
3 *1863:Y 1.33484e-05
4 *744:41 1.22719e-05
5 *744:31 7.9617e-05
6 *744:18 3.79072e-05
7 *744:12 0.000131757
8 *744:8 3.98527e-05
9 *744:8 *746:8 0
10 *744:12 *889:27 4.61681e-07
11 *744:18 *746:26 0
12 *744:18 *889:27 3.84734e-08
13 *744:31 *747:29 0
14 *744:31 *889:17 6.26359e-06
15 *744:31 *892:29 2.08928e-06
16 *744:31 *901:17 4.48483e-06
17 *744:41 *1682:A 7.84772e-07
18 *744:41 *747:29 2.45595e-06
19 *224:10 *744:18 3.80553e-05
20 *303:16 *744:41 1.70708e-06
21 *512:8 *744:18 7.86872e-07
22 *736:26 *744:18 0
*RES
1 *1863:Y *744:8 42.3782 
2 *744:8 *744:12 24.9377 
3 *744:12 *744:18 41.328 
4 *744:18 *1390:A1 34.4 
5 *744:12 *744:31 49.583 
6 *744:31 *744:41 39.2046 
7 *744:41 *1683:B 17.2 
*END

*D_NET *745 0.000418937
*CONN
*I *1388:A1 I *D AO21x1_ASAP7_75t_R
*I *1709:B I *D HAxp5_ASAP7_75t_R
*I *1864:Y O *D BUFx2_ASAP7_75t_R
*CAP
1 *1388:A1 0
2 *1709:B 3.29972e-06
3 *1864:Y 8.91514e-07
4 *745:55 4.11557e-06
5 *745:43 7.87877e-05
6 *745:26 2.88663e-05
7 *745:18 5.44176e-05
8 *745:12 0.000110409
9 *745:8 7.7772e-06
10 *745:12 *890:27 1.03275e-05
11 *745:18 *890:27 1.0445e-05
12 *745:26 *747:10 0
13 *745:43 *889:17 2.40941e-05
14 *745:43 *890:19 5.84462e-07
15 *745:43 *892:15 0
16 *745:43 *901:17 2.34967e-05
17 *1709:A *745:18 2.62902e-05
18 *1709:A *745:26 7.02918e-07
19 *330:10 *745:55 8.23819e-07
20 *509:17 *745:55 6.40127e-07
21 *735:12 *745:18 0
22 *735:12 *745:26 1.57407e-05
23 *735:20 *1709:B 9.13667e-07
24 *736:8 *745:18 1.18037e-06
25 *736:26 *745:55 3.1168e-07
26 *737:18 *745:12 6.18758e-07
27 *737:18 *745:43 2.07902e-07
28 *737:24 *745:43 1.3995e-05
*RES
1 *1864:Y *745:8 35.057 
2 *745:8 *745:12 20.176 
3 *745:12 *745:18 39.9166 
4 *745:18 *745:26 48.1674 
5 *745:26 *1709:B 36.0045 
6 *745:12 *745:43 44.0888 
7 *745:43 *745:55 42.6636 
8 *745:55 *1388:A1 34.4 
*END

*D_NET *746 0.000414822
*CONN
*I *1386:A1 I *D AO21x2_ASAP7_75t_R
*I *1711:B I *D HAxp5_ASAP7_75t_R
*I *1865:Y O *D BUFx2_ASAP7_75t_R
*CAP
1 *1386:A1 4.12402e-06
2 *1711:B 1.03859e-05
3 *1865:Y 1.15952e-05
4 *746:26 6.02402e-05
5 *746:24 6.11696e-05
6 *746:20 2.44089e-05
7 *746:12 7.94116e-05
8 *746:10 6.21941e-05
9 *746:8 1.15952e-05
10 *746:12 *891:13 9.83747e-06
11 *746:12 *1012:8 2.03526e-06
12 *746:26 *1603:A1 0
13 *746:26 *1027:18 0
14 *1347:A *746:26 0
15 *1694:A *746:12 6.7842e-07
16 *224:10 *746:20 1.77874e-05
17 *224:10 *746:24 0
18 *288:12 *746:20 1.62133e-05
19 *308:8 *746:26 2.98814e-07
20 *502:12 *746:26 2.66147e-05
21 *502:23 *746:26 0
22 *507:51 *746:26 1.10561e-06
23 *507:66 *746:26 5.58366e-06
24 *509:17 *746:24 0
25 *509:26 *1386:A1 5.51397e-07
26 *509:32 *746:24 1.02824e-06
27 *509:32 *746:26 5.52807e-07
28 *511:10 *746:24 2.68933e-07
29 *511:10 *746:26 8.2174e-07
30 *735:26 *746:26 0
31 *736:26 *746:20 0
32 *737:34 *746:26 4.35885e-06
33 *737:51 *746:26 1.96009e-06
34 *738:10 *746:26 0
35 *744:8 *746:8 0
36 *744:18 *746:26 0
*RES
1 *1865:Y *746:8 41.158 
2 *746:8 *746:10 17.2 
3 *746:10 *746:12 35.8333 
4 *746:12 *746:20 45.6668 
5 *746:20 *746:24 22.7378 
6 *746:24 *746:26 38.2953 
7 *746:26 *1711:B 39.2134 
8 *746:24 *1386:A1 36.0045 
*END

*D_NET *684 0.000560578
*CONN
*I *2064:A I *D BUFx3_ASAP7_75t_R
*I *1651:B I *D HAxp5_ASAP7_75t_R
*I *1293:Y O *D BUFx2_ASAP7_75t_R
*CAP
1 *2064:A 0
2 *1651:B 0
3 *1293:Y 1.01586e-05
4 *684:33 1.93936e-05
5 *684:20 1.15575e-05
6 *684:12 0.000160806
7 *684:10 0.000129854
8 *684:8 1.01586e-05
9 *684:12 *687:12 0
10 *684:12 *687:37 0
11 *684:12 *802:14 0
12 *684:12 *844:25 0
13 *684:12 *957:21 5.47462e-05
14 *1281:B *684:33 2.73708e-06
15 *1651:A *684:20 8.06111e-06
16 *119:21 *684:20 1.78698e-05
17 *119:21 *684:33 3.28023e-07
18 *152:8 *684:33 1.70866e-06
19 *444:25 *684:20 1.00054e-05
20 *448:12 *684:20 8.15645e-06
21 *459:14 *684:12 0.000115037
*RES
1 *1293:Y *684:8 40.6887 
2 *684:8 *684:10 17.2 
3 *684:10 *684:12 48.4821 
4 *684:12 *684:20 45.0807 
5 *684:20 *1651:B 17.2 
6 *684:12 *684:33 44.0081 
7 *684:33 *2064:A 17.2 
*END

*D_NET *747 0.000311955
*CONN
*I *1604:A1 I *D AO21x1_ASAP7_75t_R
*I *1682:A I *D HAxp5_ASAP7_75t_R
*I *1866:Y O *D BUFx2_ASAP7_75t_R
*CAP
1 *1604:A1 0
2 *1682:A 1.44477e-05
3 *1866:Y 1.02487e-05
4 *747:47 1.10843e-06
5 *747:41 5.15751e-05
6 *747:29 7.49054e-05
7 *747:10 6.74576e-05
8 *747:8 3.88199e-05
9 *747:10 *892:37 0
10 *747:41 *1027:28 1.78867e-05
11 *213:8 *1682:A 0
12 *216:10 *747:10 0
13 *218:12 *1682:A 6.19506e-06
14 *303:16 *1682:A 3.76882e-06
15 *303:16 *747:10 4.26751e-07
16 *507:23 *747:47 4.15076e-06
17 *512:8 *747:10 0
18 *513:8 *747:47 0
19 *735:12 *747:10 0
20 *735:20 *747:10 8.45637e-06
21 *736:20 *747:8 7.25585e-06
22 *737:24 *747:41 0
23 *737:34 *747:29 2.01104e-06
24 *744:31 *747:29 0
25 *744:41 *1682:A 7.84772e-07
26 *744:41 *747:29 2.45595e-06
27 *745:26 *747:10 0
*RES
1 *1866:Y *747:8 39.2134 
2 *747:8 *747:10 21.6819 
3 *747:10 *1682:A 44.7335 
4 *747:10 *747:29 39.8296 
5 *747:29 *747:41 49.8786 
6 *747:41 *747:47 35.8079 
7 *747:47 *1604:A1 17.2 
*END

*D_NET *748 0.000120825
*CONN
*I *2025:A I *D BUFx3_ASAP7_75t_R
*I *1164:A I *D INVx1_ASAP7_75t_R
*I *1867:Y O *D BUFx2_ASAP7_75t_R
*CAP
1 *2025:A 0
2 *1164:A 8.07963e-06
3 *1867:Y 3.59613e-05
4 *748:12 1.5289e-05
5 *748:8 4.31707e-05
6 *1164:A *1060:8 1.00935e-05
7 *748:8 *749:6 8.23084e-06
8 *748:12 *757:8 0
*RES
1 *1867:Y *748:8 49.9099 
2 *748:8 *748:12 21.7053 
3 *748:12 *1164:A 23.0831 
4 *748:12 *2025:A 17.2 
*END

*D_NET *749 0.000312571
*CONN
*I *1469:A1 I *D AO21x1_ASAP7_75t_R
*I *1366:A I *D INVx1_ASAP7_75t_R
*I *1868:Y O *D BUFx2_ASAP7_75t_R
*CAP
1 *1469:A1 0
2 *1366:A 0
3 *1868:Y 2.50663e-05
4 *749:27 4.14903e-05
5 *749:21 5.73029e-05
6 *749:10 4.05435e-05
7 *749:6 4.97971e-05
8 *749:6 *751:14 6.86929e-06
9 *749:10 *757:8 8.42485e-06
10 *749:10 *758:18 8.21535e-06
11 *749:10 *912:29 1.07373e-06
12 *749:21 *758:18 1.11701e-05
13 *1193:A *749:27 5.34278e-06
14 *1194:A1 *749:27 1.27782e-06
15 *1194:B *749:27 6.7842e-07
16 *168:8 *749:10 7.64042e-07
17 *168:8 *749:21 4.87385e-06
18 *169:8 *749:21 3.33122e-05
19 *170:10 *749:21 5.90971e-06
20 *398:87 *749:27 2.22736e-06
21 *567:8 *749:21 0
22 *748:8 *749:6 8.23084e-06
*RES
1 *1868:Y *749:6 34.8492 
2 *749:6 *749:10 36.9108 
3 *749:10 *1366:A 34.4 
4 *749:10 *749:21 34.6581 
5 *749:21 *749:27 37.2153 
6 *749:27 *1469:A1 34.4 
*END

*D_NET *750 7.47825e-05
*CONN
*I *1217:A I *D INVx1_ASAP7_75t_R
*I *1869:Y O *D BUFx2_ASAP7_75t_R
*CAP
1 *1217:A 3.39566e-05
2 *1869:Y 3.39566e-05
3 *1217:A *904:13 6.86929e-06
*RES
1 *1869:Y *1217:A 48.8403 
*END

*D_NET *751 0.000225907
*CONN
*I *1465:A1 I *D AO21x1_ASAP7_75t_R
*I *1266:A I *D INVx1_ASAP7_75t_R
*I *1870:Y O *D BUFx2_ASAP7_75t_R
*CAP
1 *1465:A1 6.9744e-06
2 *1266:A 0
3 *1870:Y 3.37963e-05
4 *751:23 4.22504e-05
5 *751:14 1.11101e-05
6 *751:6 8.01824e-05
7 *751:14 *759:16 1.02072e-05
8 *751:23 *759:31 0
9 *1198:A *751:23 8.18283e-06
10 *1465:B *1465:A1 1.25483e-05
11 *284:8 *751:14 7.84037e-07
12 *284:8 *751:23 1.25103e-05
13 *399:54 *751:23 4.9137e-07
14 *749:6 *751:14 6.86929e-06
*RES
1 *1870:Y *751:6 31.6403 
2 *751:6 *751:14 42.5924 
3 *751:14 *1266:A 17.2 
4 *751:6 *751:23 45.9215 
5 *751:23 *1465:A1 38.1438 
*END

*D_NET *752 0.000194455
*CONN
*I *1184:A I *D INVx3_ASAP7_75t_R
*I *1461:A1 I *D AO21x1_ASAP7_75t_R
*I *1871:Y O *D BUFx12f_ASAP7_75t_R
*CAP
1 *1184:A 0
2 *1461:A1 0
3 *1871:Y 4.4776e-05
4 *752:20 9.52786e-06
5 *752:14 3.38138e-05
6 *752:6 6.9062e-05
7 *752:6 *1871:A 0
8 *752:14 *760:27 3.42044e-06
9 *1640:A *752:6 2.77295e-05
10 *90:8 *752:14 9.47071e-07
11 *90:8 *752:20 1.21808e-06
12 *386:14 *752:20 9.80084e-07
13 *399:44 *752:14 2.98049e-06
*RES
1 *1871:Y *752:6 34.8492 
2 *752:6 *752:14 45.2052 
3 *752:14 *752:20 41.4396 
4 *752:20 *1461:A1 17.2 
5 *752:6 *1184:A 17.2 
*END

*D_NET *753 0.000204771
*CONN
*I *1457:A1 I *D AO21x1_ASAP7_75t_R
*I *1121:A I *D INVx1_ASAP7_75t_R
*I *1872:Y O *D BUFx2_ASAP7_75t_R
*CAP
1 *1457:A1 0
2 *1121:A 8.17063e-06
3 *1872:Y 1.11444e-05
4 *753:31 1.66779e-05
5 *753:16 3.57035e-05
6 *753:8 5.53552e-05
7 *753:8 *754:8 0
8 *753:8 *762:20 7.97373e-06
9 *753:16 *754:8 1.93481e-06
10 *753:16 *762:12 1.49656e-05
11 *753:16 *763:10 0
12 *753:31 *754:8 0
13 *753:31 *754:18 3.00791e-05
14 *753:31 *762:20 1.09395e-05
15 *753:31 *962:8 6.37325e-06
16 *165:10 *1121:A 4.18905e-06
17 *398:34 *753:31 1.26391e-06
*RES
1 *1872:Y *753:8 43.4107 
2 *753:8 *753:16 46.871 
3 *753:16 *1121:A 38.1438 
4 *753:8 *753:31 32.8269 
5 *753:31 *1457:A1 17.2 
*END

*D_NET *754 0.000244928
*CONN
*I *1585:A I *D INVx1_ASAP7_75t_R
*I *1453:A1 I *D AO21x1_ASAP7_75t_R
*I *1873:Y O *D BUFx2_ASAP7_75t_R
*CAP
1 *1585:A 0
2 *1453:A1 5.47714e-06
3 *1873:Y 1.79895e-05
4 *754:18 3.64668e-05
5 *754:12 3.41809e-05
6 *754:8 2.11806e-05
7 *754:8 *763:10 0
8 *754:18 *962:8 9.97906e-07
9 *60:8 *1453:A1 5.0551e-07
10 *181:10 *754:18 3.81278e-05
11 *398:30 *754:18 4.12735e-05
12 *561:8 *754:18 1.67148e-05
13 *753:8 *754:8 0
14 *753:16 *754:8 1.93481e-06
15 *753:31 *754:8 0
16 *753:31 *754:18 3.00791e-05
*RES
1 *1873:Y *754:8 46.2265 
2 *754:8 *754:12 18.8045 
3 *754:12 *754:18 49.0454 
4 *754:18 *1453:A1 37.0741 
5 *754:12 *1585:A 17.2 
*END

*D_NET *755 0.000182348
*CONN
*I *1434:A1 I *D AO21x1_ASAP7_75t_R
*I *1173:A I *D INVx1_ASAP7_75t_R
*I *1874:Y O *D BUFx2_ASAP7_75t_R
*CAP
1 *1434:A1 1.65539e-05
2 *1173:A 2.98568e-06
3 *1874:Y 1.26264e-05
4 *755:10 4.71635e-05
5 *755:8 4.02503e-05
6 *755:10 *875:29 1.12894e-06
7 *755:10 *884:29 0
8 *1197:A *1173:A 1.41576e-05
9 *1998:A *1434:A1 0
10 *81:8 *755:10 0
11 *166:14 *1434:A1 0
12 *283:12 *1173:A 1.41576e-05
13 *283:12 *755:10 4.59037e-06
14 *390:8 *1434:A1 9.63073e-07
15 *393:14 *1434:A1 6.36498e-06
16 *393:14 *755:10 1.80733e-05
17 *399:128 *755:10 5.43721e-07
18 *542:12 *1434:A1 2.78893e-06
*RES
1 *1874:Y *755:8 39.2134 
2 *755:8 *755:10 24.7793 
3 *755:10 *1173:A 38.1438 
4 *755:10 *1434:A1 48.4791 
*END

*D_NET *756 0.000237468
*CONN
*I *1600:A1 I *D AO21x1_ASAP7_75t_R
*I *1335:A I *D INVx2_ASAP7_75t_R
*I *1875:Y O *D BUFx3_ASAP7_75t_R
*CAP
1 *1600:A1 0
2 *1335:A 8.75836e-06
3 *1875:Y 1.63524e-05
4 *756:37 5.31289e-06
5 *756:31 4.62858e-05
6 *756:16 3.08698e-05
7 *756:10 7.94367e-05
8 *756:10 *919:29 1.05879e-06
9 *756:16 *765:10 8.4825e-06
10 *756:31 *765:20 1.9948e-05
11 *756:37 *1629:B 9.52859e-07
12 *64:8 *756:31 2.18318e-06
13 *65:6 *756:31 4.20954e-06
14 *283:6 *756:31 0
15 *399:20 *756:31 1.81768e-06
16 *399:26 *756:31 9.49598e-06
17 *399:32 *756:16 2.30405e-06
*RES
1 *1875:Y *756:10 43.8321 
2 *756:10 *756:16 47.7706 
3 *756:16 *1335:A 40.0317 
4 *756:10 *756:31 41.4408 
5 *756:31 *756:37 38.9053 
6 *756:37 *1600:A1 17.2 
*END

*D_NET *685 0.000387993
*CONN
*I *2063:A I *D BUFx3_ASAP7_75t_R
*I *1662:B I *D HAxp5_ASAP7_75t_R
*I *1259:Y O *D BUFx2_ASAP7_75t_R
*CAP
1 *2063:A 1.51024e-05
2 *1662:B 0
3 *1259:Y 9.64671e-06
4 *685:34 1.60641e-05
5 *685:30 8.98109e-05
6 *685:20 0.000109485
7 *685:10 3.02826e-05
8 *2063:A *1043:10 5.0551e-07
9 *2063:A *1046:10 0
10 *2063:A *1098:10 1.09842e-06
11 *685:10 *841:29 1.07204e-05
12 *685:10 *844:25 0
13 *685:20 *687:12 2.10683e-05
14 *685:20 *844:25 4.49492e-06
15 *685:30 *840:13 7.25359e-05
16 *685:30 *842:17 6.0126e-06
17 *685:30 *1020:28 1.1649e-06
18 *119:21 *2063:A 0
19 *150:10 *2063:A 0
*RES
1 *1259:Y *685:10 38.6698 
2 *685:10 *685:20 48.8968 
3 *685:20 *685:30 47.4975 
4 *685:30 *685:34 17.857 
5 *685:34 *1662:B 34.4 
6 *685:34 *2063:A 45.0151 
*END

*D_NET *757 0.000221097
*CONN
*I *2024:A I *D BUFx3_ASAP7_75t_R
*I *1632:B I *D HAxp5_ASAP7_75t_R
*I *1876:Y O *D BUFx2_ASAP7_75t_R
*CAP
1 *2024:A 2.07861e-05
2 *1632:B 1.18336e-05
3 *1876:Y 0
4 *757:25 5.22144e-05
5 *757:8 6.99754e-05
6 *757:6 2.67135e-05
7 *2024:A *1060:14 2.37222e-05
8 *757:8 *758:18 2.04934e-06
9 *757:8 *902:31 8.06799e-07
10 *757:8 *911:29 1.64764e-06
11 *757:25 *758:18 1.69111e-06
12 *1632:A *1632:B 6.49184e-07
13 *74:10 *1632:B 5.82745e-07
14 *748:12 *757:8 0
15 *749:10 *757:8 8.42485e-06
*RES
1 *1876:Y *757:6 34.4 
2 *757:6 *757:8 21.9635 
3 *757:8 *1632:B 45.6313 
4 *757:8 *757:25 49.4601 
5 *757:25 *2024:A 49.6302 
*END

*D_NET *758 0.000168284
*CONN
*I *1669:B I *D HAxp5_ASAP7_75t_R
*I *1468:A I *D AND2x2_ASAP7_75t_R
*I *1877:Y O *D BUFx2_ASAP7_75t_R
*CAP
1 *1669:B 0
2 *1468:A 1.7922e-05
3 *1877:Y 1.58742e-05
4 *758:20 1.7922e-05
5 *758:18 2.12523e-05
6 *758:10 3.71265e-05
7 *74:10 *758:10 9.43723e-06
8 *74:10 *758:18 6.21979e-06
9 *74:16 *758:10 1.88216e-05
10 *170:10 *1468:A 5.82745e-07
11 *749:10 *758:18 8.21535e-06
12 *749:21 *758:18 1.11701e-05
13 *757:8 *758:18 2.04934e-06
14 *757:25 *758:18 1.69111e-06
*RES
1 *1877:Y *758:10 47.0977 
2 *758:10 *758:18 49.1804 
3 *758:18 *758:20 17.2 
4 *758:20 *1468:A 26.8269 
5 *758:20 *1669:B 17.2 
*END

*D_NET *759 0.000277799
*CONN
*I *1464:A I *D AND2x2_ASAP7_75t_R
*I *1704:B I *D HAxp5_ASAP7_75t_R
*I *1878:Y O *D BUFx2_ASAP7_75t_R
*CAP
1 *1464:A 0
2 *1704:B 3.2643e-06
3 *1878:Y 5.68094e-06
4 *759:31 2.50066e-05
5 *759:16 5.40262e-05
6 *759:12 8.49922e-05
7 *759:8 6.49179e-05
8 *759:8 *913:29 5.79724e-07
9 *759:8 *914:13 0
10 *759:16 *903:13 1.34329e-05
11 *759:16 *912:29 0
12 *169:8 *759:31 0
13 *170:25 *759:31 1.02842e-06
14 *284:8 *759:16 5.09907e-06
15 *385:6 *759:31 1.36155e-06
16 *389:8 *759:31 4.39235e-06
17 *399:88 *759:31 3.81019e-06
18 *751:14 *759:16 1.02072e-05
19 *751:23 *759:31 0
*RES
1 *1878:Y *759:8 37.779 
2 *759:8 *759:12 44.4761 
3 *759:12 *759:16 38.6003 
4 *759:16 *1704:B 36.0045 
5 *759:16 *759:31 35.7278 
6 *759:31 *1464:A 17.2 
*END

*D_NET *760 0.000179863
*CONN
*I *1460:A I *D AND2x2_ASAP7_75t_R
*I *1640:B I *D HAxp5_ASAP7_75t_R
*I *1879:Y O *D BUFx2_ASAP7_75t_R
*CAP
1 *1460:A 5.36387e-06
2 *1640:B 0
3 *1879:Y 2.39056e-05
4 *760:27 1.95393e-05
5 *760:16 3.06201e-05
6 *760:6 6.87011e-05
7 *760:27 *906:29 0
8 *90:8 *760:27 2.22925e-05
9 *91:8 *760:16 1.1677e-06
10 *386:8 *1460:A 4.8528e-06
11 *752:14 *760:27 3.42044e-06
*RES
1 *1879:Y *760:6 27.3617 
2 *760:6 *760:16 49.6018 
3 *760:16 *1640:B 17.2 
4 *760:6 *760:27 47.3528 
5 *760:27 *1460:A 20.409 
*END

*D_NET *761 0.000176614
*CONN
*I *1329:A I *D INVx1_ASAP7_75t_R
*I *1880:Y O *D BUFx2_ASAP7_75t_R
*CAP
1 *1329:A 9.36609e-06
2 *1880:Y 7.6652e-06
3 *761:18 4.15037e-05
4 *761:10 3.98028e-05
5 *1329:A *783:18 6.6195e-06
6 *761:10 *783:6 0
7 *761:10 *864:25 0
8 *761:18 *864:25 3.06142e-05
9 *761:18 *866:27 0
10 *761:18 *915:27 6.10208e-06
11 *761:18 *1018:26 1.46827e-05
12 *535:8 *761:18 0
13 *700:16 *761:18 0
14 *710:16 *761:18 2.02577e-05
15 *717:16 *761:18 0
*RES
1 *1880:Y *761:10 37.4124 
2 *761:10 *761:18 49.8764 
3 *761:18 *1329:A 39.2134 
*END

*D_NET *762 0.000166738
*CONN
*I *1635:B I *D HAxp5_ASAP7_75t_R
*I *1456:A I *D AND2x2_ASAP7_75t_R
*I *1881:Y O *D BUFx2_ASAP7_75t_R
*CAP
1 *1635:B 1.0496e-05
2 *1456:A 0
3 *1881:Y 0
4 *762:20 1.32638e-05
5 *762:12 5.53123e-05
6 *762:6 5.25445e-05
7 *1635:B *763:10 2.74902e-07
8 *762:12 *763:10 4.7643e-07
9 *167:18 *1635:B 0
10 *399:102 *762:20 4.9137e-07
11 *753:8 *762:20 7.97373e-06
12 *753:16 *762:12 1.49656e-05
13 *753:31 *762:20 1.09395e-05
*RES
1 *1881:Y *762:6 34.4 
2 *762:6 *762:12 41.9437 
3 *762:12 *762:20 43.2973 
4 *762:20 *1456:A 17.2 
5 *762:6 *1635:B 40.5098 
*END

*D_NET *763 0.000159477
*CONN
*I *1668:B I *D HAxp5_ASAP7_75t_R
*I *1452:A I *D AND2x2_ASAP7_75t_R
*I *1882:Y O *D BUFx2_ASAP7_75t_R
*CAP
1 *1668:B 0
2 *1452:A 0
3 *1882:Y 0
4 *763:20 2.40022e-05
5 *763:12 3.20795e-05
6 *763:10 4.59844e-05
7 *763:6 3.79072e-05
8 *763:10 *883:31 0
9 *763:10 *916:29 1.56957e-05
10 *763:10 *917:13 8.06799e-07
11 *1635:B *763:10 2.74902e-07
12 *165:10 *763:20 2.24968e-06
13 *181:10 *763:20 0
14 *388:10 *763:20 0
15 *753:16 *763:10 0
16 *754:8 *763:10 0
17 *762:12 *763:10 4.7643e-07
*RES
1 *1882:Y *763:6 34.4 
2 *763:6 *763:10 47.611 
3 *763:10 *763:12 3.74377 
4 *763:12 *763:20 49.6585 
5 *763:20 *1452:A 17.2 
6 *763:12 *1668:B 17.2 
*END

*D_NET *764 0.000155346
*CONN
*I *1629:B I *D HAxp5_ASAP7_75t_R
*I *1433:A I *D AND2x2_ASAP7_75t_R
*I *1883:Y O *D BUFx2_ASAP7_75t_R
*CAP
1 *1629:B 9.96921e-06
2 *1433:A 3.08174e-05
3 *1883:Y 0
4 *764:8 5.97365e-05
5 *764:6 1.89499e-05
6 *1433:A *1849:A 1.88951e-06
7 *764:8 *875:29 0
8 *764:8 *884:29 0
9 *65:6 *1629:B 2.50666e-06
10 *398:133 *764:8 0
11 *721:8 *764:8 2.67979e-05
12 *730:8 *764:8 3.72571e-06
13 *756:37 *1629:B 9.52859e-07
*RES
1 *1883:Y *764:6 34.4 
2 *764:6 *764:8 16.3318 
3 *764:8 *1433:A 48.8403 
4 *764:8 *1629:B 41.6361 
*END

*D_NET *765 0.000156544
*CONN
*I *1599:A I *D AND2x2_ASAP7_75t_R
*I *1703:B I *D HAxp5_ASAP7_75t_R
*I *1884:Y O *D BUFx2_ASAP7_75t_R
*CAP
1 *1599:A 0
2 *1703:B 2.65585e-06
3 *1884:Y 1.98109e-05
4 *765:20 1.59143e-05
5 *765:12 1.32585e-05
6 *765:10 1.98109e-05
7 *1205:A *765:20 5.24059e-07
8 *1600:B *765:20 1.43292e-05
9 *283:6 *1703:B 5.85387e-06
10 *399:20 *765:10 2.81851e-06
11 *399:20 *765:20 3.31374e-05
12 *756:16 *765:10 8.4825e-06
13 *756:31 *765:20 1.9948e-05
*RES
1 *1884:Y *765:10 44.8451 
2 *765:10 *765:12 17.2 
3 *765:12 *765:20 49.4071 
4 *765:20 *1703:B 18.8045 
5 *765:12 *1599:A 17.2 
*END

*D_NET *766 0.000105012
*CONN
*I *2062:A I *D BUFx3_ASAP7_75t_R
*I *1309:A I *D INVx1_ASAP7_75t_R
*I *1885:Y O *D BUFx2_ASAP7_75t_R
*CAP
1 *2062:A 5.61224e-06
2 *1309:A 2.48366e-05
3 *1885:Y 1.15011e-05
4 *766:10 4.19499e-05
5 *1309:A *775:10 0
6 *2062:A *1097:8 1.89933e-05
7 *1660:A *1309:A 2.11853e-06
*RES
1 *1885:Y *766:10 40.5098 
2 *766:10 *1309:A 48.1674 
3 *766:10 *2062:A 39.2134 
*END

*D_NET *686 0.000112738
*CONN
*I *1502:A1 I *D AO21x2_ASAP7_75t_R
*I *1677:B I *D HAxp5_ASAP7_75t_R
*I *1805:Y O *D BUFx2_ASAP7_75t_R
*CAP
1 *1502:A1 1.11794e-05
2 *1677:B 0
3 *1805:Y 5.33313e-06
4 *686:14 3.66681e-05
5 *686:8 5.31806e-05
6 *1502:A1 *1595:A 2.83874e-07
7 *686:14 *1805:A 8.30021e-08
8 *686:14 *1103:10 0
9 *185:10 *1502:A1 0
10 *195:6 *686:14 3.80537e-06
11 *195:12 *686:14 0
12 *459:51 *1502:A1 2.20493e-06
*RES
1 *1805:Y *686:8 37.0741 
2 *686:8 *686:14 41.8906 
3 *686:14 *1677:B 17.2 
4 *686:8 *1502:A1 40.5098 
*END

*D_NET *767 0.000163646
*CONN
*I *1583:A I *D INVx1_ASAP7_75t_R
*I *1274:A I *D AND2x2_ASAP7_75t_R
*I *1886:Y O *D BUFx2_ASAP7_75t_R
*CAP
1 *1583:A 0
2 *1274:A 0
3 *1886:Y 1.43605e-05
4 *767:16 3.80569e-05
5 *767:10 5.49997e-05
6 *767:8 3.13033e-05
7 *767:16 *1240:B 5.85387e-06
8 *767:16 *1660:B 0
9 *767:16 *775:16 0
10 *767:16 *969:8 0
11 *767:16 *1058:14 5.52264e-06
12 *767:16 *1097:12 0
13 *1661:B *767:10 0
14 *1661:B *767:16 0
15 *125:8 *767:16 3.95845e-06
16 *125:16 *767:16 0
17 *126:8 *767:16 0
18 *127:8 *767:10 1.25035e-06
19 *127:8 *767:16 2.68933e-07
20 *417:8 *767:16 0
21 *442:8 *767:16 0
22 *443:10 *767:16 8.07162e-06
*RES
1 *1886:Y *767:8 40.2831 
2 *767:8 *767:10 11.8265 
3 *767:10 *767:16 48.0891 
4 *767:16 *1274:A 17.2 
5 *767:10 *1583:A 34.4 
*END

*D_NET *768 0.000209581
*CONN
*I *1320:A I *D INVx1_ASAP7_75t_R
*I *1364:A I *D AND2x2_ASAP7_75t_R
*I *1887:Y O *D BUFx2_ASAP7_75t_R
*CAP
1 *1320:A 3.28099e-06
2 *1364:A 0
3 *1887:Y 2.22293e-05
4 *768:16 3.35601e-05
5 *768:10 5.06788e-05
6 *768:8 3.6067e-05
7 *768:10 *777:10 5.13209e-07
8 *768:10 *777:16 2.22736e-06
9 *768:16 *777:16 1.26791e-05
10 *768:16 *1021:53 3.46317e-06
11 *116:8 *768:10 1.02103e-05
12 *116:8 *768:16 6.33206e-07
13 *117:8 *768:10 8.22087e-06
14 *127:22 *1320:A 2.20493e-06
15 *403:14 *768:8 1.05718e-05
16 *490:8 *768:16 1.30409e-05
*RES
1 *1887:Y *768:8 44.5617 
2 *768:8 *768:10 11.8265 
3 *768:10 *768:16 45.3016 
4 *768:16 *1364:A 17.2 
5 *768:10 *1320:A 36.0045 
*END

*D_NET *769 0.000240476
*CONN
*I *1356:A I *D AND2x2_ASAP7_75t_R
*I *1362:A I *D INVx1_ASAP7_75t_R
*I *1888:Y O *D BUFx2_ASAP7_75t_R
*CAP
1 *1356:A 8.76875e-06
2 *1362:A 0
3 *1888:Y 1.93814e-05
4 *769:23 4.83172e-05
5 *769:21 4.18649e-05
6 *769:12 2.31651e-06
7 *769:10 1.93814e-05
8 *1356:A *1021:44 5.0551e-07
9 *769:23 *1355:A 1.09067e-06
10 *769:23 *778:10 8.06799e-07
11 *769:23 *1021:31 0
12 *769:23 *1021:44 8.51183e-06
13 *769:23 *1023:31 4.66556e-06
14 *769:23 *1039:8 8.2174e-07
15 *193:12 *769:10 7.13066e-06
16 *193:12 *769:23 3.07377e-05
17 *194:10 *769:23 8.06436e-06
18 *403:14 *769:10 6.49184e-07
19 *404:10 *769:10 1.31643e-05
20 *404:10 *769:23 2.84286e-06
21 *408:10 *769:10 4.17223e-06
22 *408:10 *769:21 5.85387e-06
23 *486:8 *769:23 8.67112e-06
24 *487:8 *1356:A 6.15528e-07
25 *487:10 *769:23 2.14135e-06
*RES
1 *1888:Y *769:10 48.9573 
2 *769:10 *769:12 17.2 
3 *769:12 *1362:A 17.2 
4 *769:12 *769:21 18.8045 
5 *769:21 *769:23 37.7321 
6 *769:23 *1356:A 39.2134 
*END

*D_NET *770 0.000195731
*CONN
*I *1341:A I *D AND2x2_ASAP7_75t_R
*I *1243:A I *D INVx1_ASAP7_75t_R
*I *1889:Y O *D BUFx2_ASAP7_75t_R
*CAP
1 *1341:A 1.06894e-06
2 *1243:A 1.34494e-05
3 *1889:Y 9.92599e-06
4 *770:39 1.05997e-05
5 *770:31 3.4602e-05
6 *770:18 3.40545e-05
7 *770:12 5.03754e-05
8 *770:8 1.46251e-05
9 *1341:A *773:6 1.52651e-06
10 *770:8 *1899:A 1.37524e-06
11 *770:8 *771:8 0
12 *770:8 *933:27 0
13 *770:12 *781:10 3.85895e-06
14 *770:18 *779:23 1.4191e-06
15 *770:18 *781:10 2.84411e-06
16 *770:18 *933:27 0
17 *770:31 *771:8 8.52268e-06
18 *770:31 *781:10 2.27522e-06
19 *770:39 *771:8 8.06799e-07
20 *770:39 *773:6 5.19552e-07
21 *1325:B *770:31 1.44167e-06
22 *128:10 *1243:A 0
23 *418:44 *770:39 1.31163e-06
24 *465:8 *770:31 0
25 *465:8 *770:39 1.12894e-06
*RES
1 *1889:Y *770:8 41.158 
2 *770:8 *770:12 19.8741 
3 *770:12 *770:18 48.4791 
4 *770:18 *1243:A 22.0134 
5 *770:12 *770:31 33.05 
6 *770:31 *770:39 39.89 
7 *770:39 *1341:A 35.4697 
*END

*D_NET *771 0.000197303
*CONN
*I *1304:A I *D AND2x2_ASAP7_75t_R
*I *1590:A I *D INVx1_ASAP7_75t_R
*I *1890:Y O *D BUFx2_ASAP7_75t_R
*CAP
1 *1304:A 7.83402e-06
2 *1590:A 0
3 *1890:Y 0
4 *771:8 4.01446e-05
5 *771:6 4.01446e-05
6 *771:4 7.83402e-06
7 *771:8 *780:8 3.70883e-05
8 *771:8 *780:23 2.22761e-05
9 *771:8 *781:22 1.49407e-08
10 *1304:B *1304:A 1.66857e-06
11 *1325:B *771:8 1.1129e-05
12 *416:27 *771:8 7.73618e-06
13 *418:29 *1304:A 3.81627e-06
14 *418:44 *771:8 8.28689e-06
15 *465:8 *771:8 0
16 *770:8 *771:8 0
17 *770:31 *771:8 8.52268e-06
18 *770:39 *771:8 8.06799e-07
*RES
1 *1890:Y *771:4 17.2 
2 *771:4 *771:6 17.2 
3 *771:6 *771:8 39.4216 
4 *771:8 *1590:A 34.4 
5 *771:4 *1304:A 22.5483 
*END

*D_NET *772 7.85758e-05
*CONN
*I *1218:A I *D INVx1_ASAP7_75t_R
*I *1891:Y O *D BUFx2_ASAP7_75t_R
*CAP
1 *1218:A 3.50467e-05
2 *1891:Y 3.50467e-05
3 *1218:A *926:13 8.4825e-06
*RES
1 *1891:Y *1218:A 48.8403 
*END

*D_NET *773 0.000178371
*CONN
*I *1326:A I *D AND2x2_ASAP7_75t_R
*I *1589:A I *D INVx1_ASAP7_75t_R
*I *1892:Y O *D BUFx2_ASAP7_75t_R
*CAP
1 *1326:A 3.65594e-06
2 *1589:A 3.60162e-06
3 *1892:Y 2.514e-05
4 *773:10 2.87416e-05
5 *773:6 5.39359e-05
6 *773:10 *1270:A 0
7 *773:10 *1271:A 0
8 *773:10 *1582:A 0
9 *773:10 *1714:B 0
10 *773:10 *928:25 7.45896e-06
11 *773:10 *936:25 1.93272e-05
12 *1341:A *773:6 1.52651e-06
13 *416:16 *1589:A 1.04475e-06
14 *418:14 *1326:A 1.40419e-08
15 *418:27 *773:10 1.5053e-05
16 *418:44 *773:6 1.58373e-06
17 *465:8 *773:10 0
18 *473:8 *773:10 5.79724e-07
19 *479:8 *773:10 8.96443e-07
20 *480:10 *1326:A 2.03526e-06
21 *480:10 *773:6 4.92332e-06
22 *480:10 *773:10 8.33296e-06
23 *770:39 *773:6 5.19552e-07
*RES
1 *1892:Y *773:6 30.5706 
2 *773:6 *773:10 41.9793 
3 *773:10 *1589:A 36.0045 
4 *773:6 *1326:A 19.3393 
*END

*D_NET *774 8.6476e-05
*CONN
*I *1582:A I *D INVx1_ASAP7_75t_R
*I *1271:A I *D AND2x2_ASAP7_75t_R
*I *1893:Y O *D BUFx2_ASAP7_75t_R
*CAP
1 *1582:A 5.38201e-06
2 *1271:A 2.15461e-05
3 *1893:Y 1.36385e-05
4 *774:8 4.05666e-05
5 *1271:A *1271:B 5.34278e-06
6 *773:10 *1271:A 0
7 *773:10 *1582:A 0
*RES
1 *1893:Y *774:8 40.2831 
2 *774:8 *1271:A 48.982 
3 *774:8 *1582:A 37.779 
*END

*D_NET *775 0.000172948
*CONN
*I *1660:B I *D HAxp5_ASAP7_75t_R
*I *2023:A I *D BUFx3_ASAP7_75t_R
*I *1894:Y O *D BUFx2_ASAP7_75t_R
*CAP
1 *1660:B 6.23644e-06
2 *2023:A 0
3 *1894:Y 0
4 *775:16 2.35933e-05
5 *775:10 4.99561e-05
6 *775:6 3.25993e-05
7 *775:10 *1097:12 0
8 *775:16 *1058:6 6.70433e-06
9 *1309:A *775:10 0
10 *1661:B *1660:B 1.33022e-05
11 *125:8 *1660:B 0
12 *148:8 *775:10 6.80131e-06
13 *148:12 *775:16 3.37545e-05
14 *767:16 *1660:B 0
15 *767:16 *775:16 0
*RES
1 *1894:Y *775:6 34.4 
2 *775:6 *775:10 40.853 
3 *775:10 *775:16 32.3168 
4 *775:16 *2023:A 34.4 
5 *775:16 *1660:B 40.0317 
*END

*D_NET *776 0.000200449
*CONN
*I *1653:B I *D HAxp5_ASAP7_75t_R
*I *1273:A I *D AND2x2_ASAP7_75t_R
*I *1895:Y O *D BUFx2_ASAP7_75t_R
*CAP
1 *1653:B 2.75681e-06
2 *1273:A 0
3 *1895:Y 2.22541e-05
4 *776:16 3.12732e-05
5 *776:10 5.12901e-05
6 *776:8 3.95142e-05
7 *776:16 *1238:B 5.34278e-06
8 *776:16 *1023:63 4.73194e-06
9 *125:16 *776:16 0
10 *126:8 *776:10 0
11 *127:16 *776:10 1.46669e-05
12 *127:22 *1653:B 7.63254e-07
13 *127:22 *776:10 1.66587e-05
14 *403:12 *776:10 9.93283e-06
15 *403:14 *776:8 1.26391e-06
*RES
1 *1895:Y *776:8 43.492 
2 *776:8 *776:10 16.3318 
3 *776:10 *776:16 39.4716 
4 *776:16 *1273:A 17.2 
5 *776:10 *1653:B 36.0045 
*END
