*SPEF "ieee 1481-1999"
*DESIGN "Multiplier_WTM"
*DATE "19:15:50 Tuesday September 15, 2026"
*VENDOR "The OpenROAD Project"
*PROGRAM "OpenROAD"
*VERSION "26Q3-2056-g41a28926b9"
*DESIGN_FLOW "NAME_SCOPE LOCAL" "PIN_CAP NONE"
*DIVIDER /
*DELIMITER :
*BUS_DELIMITER []
*T_UNIT 1 NS
*C_UNIT 1 PF
*R_UNIT 1 OHM
*L_UNIT 1 HENRY

*NAME_MAP
*1 _000_
*2 _001_
*3 _002_
*4 _003_
*5 _004_
*6 _005_
*7 _006_
*8 _007_
*9 _008_
*10 _009_
*11 _010_
*12 _011_
*13 _012_
*14 _013_
*15 _014_
*16 _015_
*17 _016_
*18 _017_
*19 _018_
*20 _019_
*21 _020_
*22 _021_
*23 _022_
*24 _023_
*25 _024_
*26 _025_
*27 _026_
*28 _027_
*29 _028_
*30 _029_
*31 _030_
*32 _031_
*33 _032_
*34 _033_
*35 _034_
*36 _035_
*37 _036_
*38 _037_
*39 _038_
*40 _039_
*41 _040_
*42 _041_
*43 _042_
*44 _043_
*45 _044_
*46 _045_
*47 _046_
*48 _047_
*49 _048_
*50 _049_
*51 _050_
*52 _051_
*53 _052_
*54 _053_
*55 _054_
*56 _055_
*57 _056_
*58 _057_
*59 _058_
*60 _059_
*61 _060_
*62 _061_
*63 _062_
*64 _063_
*65 _064_
*66 _065_
*67 _066_
*68 _067_
*69 _068_
*70 _069_
*71 _070_
*72 _071_
*73 _072_
*74 _073_
*75 _074_
*76 _075_
*77 _076_
*78 _077_
*79 _078_
*80 _079_
*81 _080_
*82 _081_
*83 _082_
*84 _083_
*85 _084_
*86 _085_
*87 _086_
*88 _087_
*89 _088_
*90 _089_
*91 _090_
*92 _091_
*93 _092_
*94 _093_
*95 _094_
*96 _095_
*97 _096_
*98 _097_
*99 _098_
*100 _099_
*101 _100_
*102 _101_
*103 _102_
*104 _103_
*105 _104_
*106 _105_
*107 _106_
*108 _107_
*109 _108_
*110 _109_
*111 _110_
*112 _111_
*113 _112_
*114 _113_
*115 _114_
*116 _115_
*117 _116_
*118 _117_
*119 _118_
*120 _119_
*121 _120_
*122 _121_
*123 _122_
*124 _123_
*125 _124_
*126 _125_
*127 _126_
*128 _127_
*129 _128_
*130 _129_
*131 _130_
*132 _131_
*133 _132_
*134 _133_
*135 _134_
*136 _135_
*137 _136_
*138 _137_
*139 _138_
*140 _139_
*141 _140_
*142 _141_
*143 _142_
*144 _143_
*145 _144_
*146 _145_
*147 _146_
*148 _147_
*149 _148_
*150 _149_
*151 _150_
*152 _151_
*153 _152_
*154 _153_
*155 _154_
*156 _155_
*157 _156_
*158 _157_
*159 _158_
*160 _159_
*161 _160_
*162 _161_
*163 _162_
*164 _163_
*165 _164_
*166 _165_
*167 _166_
*168 _167_
*169 _168_
*170 _169_
*171 _170_
*172 _171_
*173 _172_
*174 _173_
*175 _174_
*176 _175_
*177 _176_
*178 _177_
*179 _178_
*180 _179_
*181 _180_
*182 _181_
*183 _182_
*184 _183_
*185 _184_
*186 _185_
*187 _186_
*188 _187_
*189 _188_
*190 _189_
*191 _190_
*192 _191_
*193 _192_
*194 _193_
*195 _194_
*196 _195_
*197 _196_
*198 _197_
*199 _198_
*200 _199_
*201 _200_
*202 _201_
*203 _202_
*204 _203_
*205 _204_
*206 _205_
*207 _206_
*208 _207_
*209 _208_
*210 _209_
*211 _210_
*212 _211_
*213 _212_
*214 _213_
*215 _214_
*216 _215_
*217 _216_
*218 _217_
*219 _218_
*220 _219_
*221 _220_
*222 _221_
*223 _222_
*224 _223_
*225 _224_
*226 _225_
*227 _226_
*228 _227_
*229 _228_
*230 _229_
*231 _230_
*232 _231_
*233 _232_
*234 _233_
*235 _234_
*236 _235_
*237 _236_
*238 _237_
*239 _238_
*240 _239_
*241 _240_
*242 _241_
*243 _242_
*244 _243_
*245 _244_
*246 _245_
*247 _246_
*248 _247_
*249 _248_
*250 _249_
*251 _250_
*252 _251_
*253 _252_
*254 _253_
*255 _254_
*256 _255_
*257 _256_
*276 _275_
*277 _276_
*278 _277_
*279 _278_
*280 _279_
*281 _280_
*282 _281_
*283 _282_
*284 _283_
*285 _284_
*286 _285_
*287 _286_
*288 _287_
*289 _288_
*290 _289_
*291 _290_
*292 _291_
*293 _292_
*294 _293_
*295 _294_
*296 _295_
*297 _296_
*298 _297_
*299 _298_
*300 _299_
*301 _300_
*302 _301_
*303 _302_
*304 _303_
*305 _304_
*306 _305_
*307 _306_
*308 _307_
*309 _308_
*310 _309_
*311 _310_
*312 _311_
*313 _312_
*314 _313_
*316 _315_
*317 _316_
*318 _317_
*319 _318_
*320 _319_
*321 _320_
*322 _321_
*323 _322_
*324 _323_
*325 _324_
*326 _325_
*327 _326_
*328 _327_
*329 _328_
*330 _329_
*331 _330_
*332 _331_
*333 _332_
*334 _333_
*335 _334_
*336 _335_
*337 _336_
*338 _337_
*339 _338_
*340 _339_
*341 _340_
*342 _341_
*344 _343_
*345 _344_
*346 _345_
*347 _346_
*351 gen_stages\[0\]\.gen_csa\[0\]\.cout_wire\[10\]
*352 gen_stages\[0\]\.gen_csa\[0\]\.cout_wire\[11\]
*353 gen_stages\[0\]\.gen_csa\[0\]\.cout_wire\[1\]
*354 gen_stages\[0\]\.gen_csa\[0\]\.cout_wire\[2\]
*355 gen_stages\[0\]\.gen_csa\[0\]\.cout_wire\[3\]
*356 gen_stages\[0\]\.gen_csa\[0\]\.cout_wire\[4\]
*357 gen_stages\[0\]\.gen_csa\[0\]\.cout_wire\[5\]
*358 gen_stages\[0\]\.gen_csa\[0\]\.cout_wire\[6\]
*359 gen_stages\[0\]\.gen_csa\[0\]\.cout_wire\[7\]
*360 gen_stages\[0\]\.gen_csa\[0\]\.cout_wire\[8\]
*361 gen_stages\[0\]\.gen_csa\[0\]\.cout_wire\[9\]
*363 gen_stages\[0\]\.gen_csa\[0\]\.csa_mult\.A\[10\]
*364 gen_stages\[0\]\.gen_csa\[0\]\.csa_mult\.A\[1\]
*365 gen_stages\[0\]\.gen_csa\[0\]\.csa_mult\.A\[2\]
*366 gen_stages\[0\]\.gen_csa\[0\]\.csa_mult\.A\[3\]
*367 gen_stages\[0\]\.gen_csa\[0\]\.csa_mult\.A\[4\]
*368 gen_stages\[0\]\.gen_csa\[0\]\.csa_mult\.A\[5\]
*369 gen_stages\[0\]\.gen_csa\[0\]\.csa_mult\.A\[6\]
*370 gen_stages\[0\]\.gen_csa\[0\]\.csa_mult\.A\[7\]
*371 gen_stages\[0\]\.gen_csa\[0\]\.csa_mult\.A\[8\]
*372 gen_stages\[0\]\.gen_csa\[0\]\.csa_mult\.A\[9\]
*373 gen_stages\[0\]\.gen_csa\[0\]\.csa_mult\.B\[10\]
*374 gen_stages\[0\]\.gen_csa\[0\]\.csa_mult\.B\[11\]
*375 gen_stages\[0\]\.gen_csa\[0\]\.csa_mult\.B\[1\]
*376 gen_stages\[0\]\.gen_csa\[0\]\.csa_mult\.B\[2\]
*377 gen_stages\[0\]\.gen_csa\[0\]\.csa_mult\.B\[3\]
*378 gen_stages\[0\]\.gen_csa\[0\]\.csa_mult\.B\[4\]
*379 gen_stages\[0\]\.gen_csa\[0\]\.csa_mult\.B\[5\]
*380 gen_stages\[0\]\.gen_csa\[0\]\.csa_mult\.B\[6\]
*381 gen_stages\[0\]\.gen_csa\[0\]\.csa_mult\.B\[7\]
*382 gen_stages\[0\]\.gen_csa\[0\]\.csa_mult\.B\[8\]
*383 gen_stages\[0\]\.gen_csa\[0\]\.csa_mult\.B\[9\]
*384 gen_stages\[0\]\.gen_csa\[0\]\.csa_mult\.Cin\[10\]
*385 gen_stages\[0\]\.gen_csa\[0\]\.csa_mult\.Cin\[11\]
*386 gen_stages\[0\]\.gen_csa\[0\]\.csa_mult\.Cin\[12\]
*387 gen_stages\[0\]\.gen_csa\[0\]\.csa_mult\.Cin\[2\]
*388 gen_stages\[0\]\.gen_csa\[0\]\.csa_mult\.Cin\[3\]
*389 gen_stages\[0\]\.gen_csa\[0\]\.csa_mult\.Cin\[4\]
*390 gen_stages\[0\]\.gen_csa\[0\]\.csa_mult\.Cin\[5\]
*391 gen_stages\[0\]\.gen_csa\[0\]\.csa_mult\.Cin\[6\]
*392 gen_stages\[0\]\.gen_csa\[0\]\.csa_mult\.Cin\[7\]
*393 gen_stages\[0\]\.gen_csa\[0\]\.csa_mult\.Cin\[8\]
*394 gen_stages\[0\]\.gen_csa\[0\]\.csa_mult\.Cin\[9\]
*395 gen_stages\[0\]\.gen_csa\[0\]\.csa_mult\.PreSum\[10\]
*396 gen_stages\[0\]\.gen_csa\[0\]\.csa_mult\.PreSum\[11\]
*398 gen_stages\[0\]\.gen_csa\[0\]\.csa_mult\.PreSum\[2\]
*399 gen_stages\[0\]\.gen_csa\[0\]\.csa_mult\.PreSum\[3\]
*400 gen_stages\[0\]\.gen_csa\[0\]\.csa_mult\.PreSum\[4\]
*401 gen_stages\[0\]\.gen_csa\[0\]\.csa_mult\.PreSum\[5\]
*402 gen_stages\[0\]\.gen_csa\[0\]\.csa_mult\.PreSum\[6\]
*403 gen_stages\[0\]\.gen_csa\[0\]\.csa_mult\.PreSum\[7\]
*404 gen_stages\[0\]\.gen_csa\[0\]\.csa_mult\.PreSum\[8\]
*405 gen_stages\[0\]\.gen_csa\[0\]\.csa_mult\.PreSum\[9\]
*406 gen_stages\[0\]\.gen_csa\[1\]\.cout_wire\[10\]
*407 gen_stages\[0\]\.gen_csa\[1\]\.cout_wire\[11\]
*408 gen_stages\[0\]\.gen_csa\[1\]\.cout_wire\[12\]
*409 gen_stages\[0\]\.gen_csa\[1\]\.cout_wire\[13\]
*410 gen_stages\[0\]\.gen_csa\[1\]\.cout_wire\[14\]
*411 gen_stages\[0\]\.gen_csa\[1\]\.cout_wire\[4\]
*412 gen_stages\[0\]\.gen_csa\[1\]\.cout_wire\[5\]
*413 gen_stages\[0\]\.gen_csa\[1\]\.cout_wire\[6\]
*414 gen_stages\[0\]\.gen_csa\[1\]\.cout_wire\[7\]
*415 gen_stages\[0\]\.gen_csa\[1\]\.cout_wire\[8\]
*416 gen_stages\[0\]\.gen_csa\[1\]\.cout_wire\[9\]
*417 gen_stages\[0\]\.gen_csa\[1\]\.csa_mult\.A\[10\]
*418 gen_stages\[0\]\.gen_csa\[1\]\.csa_mult\.A\[11\]
*419 gen_stages\[0\]\.gen_csa\[1\]\.csa_mult\.A\[12\]
*420 gen_stages\[0\]\.gen_csa\[1\]\.csa_mult\.A\[13\]
*421 gen_stages\[0\]\.gen_csa\[1\]\.csa_mult\.A\[3\]
*422 gen_stages\[0\]\.gen_csa\[1\]\.csa_mult\.A\[4\]
*423 gen_stages\[0\]\.gen_csa\[1\]\.csa_mult\.A\[5\]
*424 gen_stages\[0\]\.gen_csa\[1\]\.csa_mult\.A\[6\]
*425 gen_stages\[0\]\.gen_csa\[1\]\.csa_mult\.A\[7\]
*426 gen_stages\[0\]\.gen_csa\[1\]\.csa_mult\.A\[8\]
*427 gen_stages\[0\]\.gen_csa\[1\]\.csa_mult\.A\[9\]
*428 gen_stages\[0\]\.gen_csa\[1\]\.csa_mult\.B\[10\]
*429 gen_stages\[0\]\.gen_csa\[1\]\.csa_mult\.B\[11\]
*430 gen_stages\[0\]\.gen_csa\[1\]\.csa_mult\.B\[12\]
*431 gen_stages\[0\]\.gen_csa\[1\]\.csa_mult\.B\[13\]
*432 gen_stages\[0\]\.gen_csa\[1\]\.csa_mult\.B\[14\]
*433 gen_stages\[0\]\.gen_csa\[1\]\.csa_mult\.B\[4\]
*434 gen_stages\[0\]\.gen_csa\[1\]\.csa_mult\.B\[5\]
*435 gen_stages\[0\]\.gen_csa\[1\]\.csa_mult\.B\[6\]
*436 gen_stages\[0\]\.gen_csa\[1\]\.csa_mult\.B\[7\]
*437 gen_stages\[0\]\.gen_csa\[1\]\.csa_mult\.B\[8\]
*438 gen_stages\[0\]\.gen_csa\[1\]\.csa_mult\.B\[9\]
*439 gen_stages\[0\]\.gen_csa\[1\]\.csa_mult\.Cin\[10\]
*440 gen_stages\[0\]\.gen_csa\[1\]\.csa_mult\.Cin\[11\]
*441 gen_stages\[0\]\.gen_csa\[1\]\.csa_mult\.Cin\[12\]
*442 gen_stages\[0\]\.gen_csa\[1\]\.csa_mult\.Cin\[13\]
*443 gen_stages\[0\]\.gen_csa\[1\]\.csa_mult\.Cin\[14\]
*444 gen_stages\[0\]\.gen_csa\[1\]\.csa_mult\.Cin\[15\]
*445 gen_stages\[0\]\.gen_csa\[1\]\.csa_mult\.Cin\[5\]
*446 gen_stages\[0\]\.gen_csa\[1\]\.csa_mult\.Cin\[6\]
*447 gen_stages\[0\]\.gen_csa\[1\]\.csa_mult\.Cin\[7\]
*448 gen_stages\[0\]\.gen_csa\[1\]\.csa_mult\.Cin\[8\]
*449 gen_stages\[0\]\.gen_csa\[1\]\.csa_mult\.Cin\[9\]
*450 gen_stages\[0\]\.gen_csa\[1\]\.csa_mult\.PreSum\[10\]
*451 gen_stages\[0\]\.gen_csa\[1\]\.csa_mult\.PreSum\[11\]
*452 gen_stages\[0\]\.gen_csa\[1\]\.csa_mult\.PreSum\[12\]
*453 gen_stages\[0\]\.gen_csa\[1\]\.csa_mult\.PreSum\[13\]
*454 gen_stages\[0\]\.gen_csa\[1\]\.csa_mult\.PreSum\[14\]
*455 gen_stages\[0\]\.gen_csa\[1\]\.csa_mult\.PreSum\[4\]
*456 gen_stages\[0\]\.gen_csa\[1\]\.csa_mult\.PreSum\[5\]
*457 gen_stages\[0\]\.gen_csa\[1\]\.csa_mult\.PreSum\[6\]
*458 gen_stages\[0\]\.gen_csa\[1\]\.csa_mult\.PreSum\[7\]
*459 gen_stages\[0\]\.gen_csa\[1\]\.csa_mult\.PreSum\[8\]
*460 gen_stages\[0\]\.gen_csa\[1\]\.csa_mult\.PreSum\[9\]
*461 gen_stages\[0\]\.gen_csa\[2\]\.cout_wire\[10\]
*462 gen_stages\[0\]\.gen_csa\[2\]\.cout_wire\[11\]
*463 gen_stages\[0\]\.gen_csa\[2\]\.cout_wire\[12\]
*464 gen_stages\[0\]\.gen_csa\[2\]\.cout_wire\[13\]
*465 gen_stages\[0\]\.gen_csa\[2\]\.cout_wire\[14\]
*466 gen_stages\[0\]\.gen_csa\[2\]\.cout_wire\[15\]
*467 gen_stages\[0\]\.gen_csa\[2\]\.cout_wire\[16\]
*468 gen_stages\[0\]\.gen_csa\[2\]\.cout_wire\[17\]
*469 gen_stages\[0\]\.gen_csa\[2\]\.cout_wire\[7\]
*470 gen_stages\[0\]\.gen_csa\[2\]\.cout_wire\[8\]
*471 gen_stages\[0\]\.gen_csa\[2\]\.cout_wire\[9\]
*472 gen_stages\[0\]\.gen_csa\[2\]\.csa_mult\.A\[10\]
*473 gen_stages\[0\]\.gen_csa\[2\]\.csa_mult\.A\[11\]
*474 gen_stages\[0\]\.gen_csa\[2\]\.csa_mult\.A\[12\]
*475 gen_stages\[0\]\.gen_csa\[2\]\.csa_mult\.A\[13\]
*476 gen_stages\[0\]\.gen_csa\[2\]\.csa_mult\.A\[14\]
*477 gen_stages\[0\]\.gen_csa\[2\]\.csa_mult\.A\[15\]
*478 gen_stages\[0\]\.gen_csa\[2\]\.csa_mult\.A\[16\]
*479 gen_stages\[0\]\.gen_csa\[2\]\.csa_mult\.A\[6\]
*480 gen_stages\[0\]\.gen_csa\[2\]\.csa_mult\.A\[7\]
*481 gen_stages\[0\]\.gen_csa\[2\]\.csa_mult\.A\[8\]
*482 gen_stages\[0\]\.gen_csa\[2\]\.csa_mult\.A\[9\]
*483 gen_stages\[0\]\.gen_csa\[2\]\.csa_mult\.B\[10\]
*484 gen_stages\[0\]\.gen_csa\[2\]\.csa_mult\.B\[11\]
*485 gen_stages\[0\]\.gen_csa\[2\]\.csa_mult\.B\[12\]
*486 gen_stages\[0\]\.gen_csa\[2\]\.csa_mult\.B\[13\]
*487 gen_stages\[0\]\.gen_csa\[2\]\.csa_mult\.B\[14\]
*488 gen_stages\[0\]\.gen_csa\[2\]\.csa_mult\.B\[15\]
*489 gen_stages\[0\]\.gen_csa\[2\]\.csa_mult\.B\[16\]
*490 gen_stages\[0\]\.gen_csa\[2\]\.csa_mult\.B\[17\]
*491 gen_stages\[0\]\.gen_csa\[2\]\.csa_mult\.B\[7\]
*492 gen_stages\[0\]\.gen_csa\[2\]\.csa_mult\.B\[8\]
*493 gen_stages\[0\]\.gen_csa\[2\]\.csa_mult\.B\[9\]
*494 gen_stages\[0\]\.gen_csa\[2\]\.csa_mult\.Cin\[10\]
*495 gen_stages\[0\]\.gen_csa\[2\]\.csa_mult\.Cin\[11\]
*496 gen_stages\[0\]\.gen_csa\[2\]\.csa_mult\.Cin\[12\]
*497 gen_stages\[0\]\.gen_csa\[2\]\.csa_mult\.Cin\[13\]
*498 gen_stages\[0\]\.gen_csa\[2\]\.csa_mult\.Cin\[14\]
*499 gen_stages\[0\]\.gen_csa\[2\]\.csa_mult\.Cin\[15\]
*500 gen_stages\[0\]\.gen_csa\[2\]\.csa_mult\.Cin\[16\]
*501 gen_stages\[0\]\.gen_csa\[2\]\.csa_mult\.Cin\[17\]
*502 gen_stages\[0\]\.gen_csa\[2\]\.csa_mult\.Cin\[18\]
*503 gen_stages\[0\]\.gen_csa\[2\]\.csa_mult\.Cin\[8\]
*504 gen_stages\[0\]\.gen_csa\[2\]\.csa_mult\.Cin\[9\]
*505 gen_stages\[0\]\.gen_csa\[2\]\.csa_mult\.PreSum\[10\]
*506 gen_stages\[0\]\.gen_csa\[2\]\.csa_mult\.PreSum\[11\]
*507 gen_stages\[0\]\.gen_csa\[2\]\.csa_mult\.PreSum\[12\]
*508 gen_stages\[0\]\.gen_csa\[2\]\.csa_mult\.PreSum\[13\]
*509 gen_stages\[0\]\.gen_csa\[2\]\.csa_mult\.PreSum\[14\]
*510 gen_stages\[0\]\.gen_csa\[2\]\.csa_mult\.PreSum\[15\]
*511 gen_stages\[0\]\.gen_csa\[2\]\.csa_mult\.PreSum\[16\]
*512 gen_stages\[0\]\.gen_csa\[2\]\.csa_mult\.PreSum\[17\]
*513 gen_stages\[0\]\.gen_csa\[2\]\.csa_mult\.PreSum\[7\]
*514 gen_stages\[0\]\.gen_csa\[2\]\.csa_mult\.PreSum\[8\]
*515 gen_stages\[0\]\.gen_csa\[2\]\.csa_mult\.PreSum\[9\]
*516 gen_stages\[1\]\.gen_csa\[0\]\.cout_wire\[10\]
*517 gen_stages\[1\]\.gen_csa\[0\]\.cout_wire\[11\]
*518 gen_stages\[1\]\.gen_csa\[0\]\.cout_wire\[12\]
*519 gen_stages\[1\]\.gen_csa\[0\]\.cout_wire\[2\]
*520 gen_stages\[1\]\.gen_csa\[0\]\.cout_wire\[3\]
*521 gen_stages\[1\]\.gen_csa\[0\]\.cout_wire\[4\]
*522 gen_stages\[1\]\.gen_csa\[0\]\.cout_wire\[5\]
*523 gen_stages\[1\]\.gen_csa\[0\]\.cout_wire\[6\]
*524 gen_stages\[1\]\.gen_csa\[0\]\.cout_wire\[7\]
*525 gen_stages\[1\]\.gen_csa\[0\]\.cout_wire\[8\]
*526 gen_stages\[1\]\.gen_csa\[0\]\.cout_wire\[9\]
*527 gen_stages\[1\]\.gen_csa\[0\]\.csa_mult\.PreSum\[10\]
*528 gen_stages\[1\]\.gen_csa\[0\]\.csa_mult\.PreSum\[11\]
*529 gen_stages\[1\]\.gen_csa\[0\]\.csa_mult\.PreSum\[12\]
*531 gen_stages\[1\]\.gen_csa\[0\]\.csa_mult\.PreSum\[3\]
*532 gen_stages\[1\]\.gen_csa\[0\]\.csa_mult\.PreSum\[4\]
*533 gen_stages\[1\]\.gen_csa\[0\]\.csa_mult\.PreSum\[5\]
*534 gen_stages\[1\]\.gen_csa\[0\]\.csa_mult\.PreSum\[6\]
*535 gen_stages\[1\]\.gen_csa\[0\]\.csa_mult\.PreSum\[7\]
*536 gen_stages\[1\]\.gen_csa\[0\]\.csa_mult\.PreSum\[8\]
*537 gen_stages\[1\]\.gen_csa\[0\]\.csa_mult\.PreSum\[9\]
*538 gen_stages\[1\]\.gen_csa\[1\]\.cout_wire\[10\]
*539 gen_stages\[1\]\.gen_csa\[1\]\.cout_wire\[11\]
*540 gen_stages\[1\]\.gen_csa\[1\]\.cout_wire\[12\]
*541 gen_stages\[1\]\.gen_csa\[1\]\.cout_wire\[13\]
*542 gen_stages\[1\]\.gen_csa\[1\]\.cout_wire\[14\]
*543 gen_stages\[1\]\.gen_csa\[1\]\.cout_wire\[15\]
*544 gen_stages\[1\]\.gen_csa\[1\]\.cout_wire\[16\]
*545 gen_stages\[1\]\.gen_csa\[1\]\.cout_wire\[17\]
*546 gen_stages\[1\]\.gen_csa\[1\]\.cout_wire\[18\]
*547 gen_stages\[1\]\.gen_csa\[1\]\.cout_wire\[6\]
*548 gen_stages\[1\]\.gen_csa\[1\]\.cout_wire\[7\]
*549 gen_stages\[1\]\.gen_csa\[1\]\.cout_wire\[8\]
*550 gen_stages\[1\]\.gen_csa\[1\]\.cout_wire\[9\]
*551 gen_stages\[1\]\.gen_csa\[1\]\.csa_mult\.PreSum\[10\]
*552 gen_stages\[1\]\.gen_csa\[1\]\.csa_mult\.PreSum\[11\]
*553 gen_stages\[1\]\.gen_csa\[1\]\.csa_mult\.PreSum\[12\]
*554 gen_stages\[1\]\.gen_csa\[1\]\.csa_mult\.PreSum\[13\]
*555 gen_stages\[1\]\.gen_csa\[1\]\.csa_mult\.PreSum\[14\]
*556 gen_stages\[1\]\.gen_csa\[1\]\.csa_mult\.PreSum\[15\]
*557 gen_stages\[1\]\.gen_csa\[1\]\.csa_mult\.PreSum\[16\]
*558 gen_stages\[1\]\.gen_csa\[1\]\.csa_mult\.PreSum\[17\]
*559 gen_stages\[1\]\.gen_csa\[1\]\.csa_mult\.PreSum\[18\]
*560 gen_stages\[1\]\.gen_csa\[1\]\.csa_mult\.PreSum\[6\]
*561 gen_stages\[1\]\.gen_csa\[1\]\.csa_mult\.PreSum\[7\]
*562 gen_stages\[1\]\.gen_csa\[1\]\.csa_mult\.PreSum\[8\]
*563 gen_stages\[1\]\.gen_csa\[1\]\.csa_mult\.PreSum\[9\]
*564 gen_stages\[2\]\.gen_csa\[0\]\.cout_wire\[10\]
*565 gen_stages\[2\]\.gen_csa\[0\]\.cout_wire\[11\]
*566 gen_stages\[2\]\.gen_csa\[0\]\.cout_wire\[12\]
*567 gen_stages\[2\]\.gen_csa\[0\]\.cout_wire\[13\]
*568 gen_stages\[2\]\.gen_csa\[0\]\.cout_wire\[14\]
*569 gen_stages\[2\]\.gen_csa\[0\]\.cout_wire\[15\]
*570 gen_stages\[2\]\.gen_csa\[0\]\.cout_wire\[3\]
*571 gen_stages\[2\]\.gen_csa\[0\]\.cout_wire\[4\]
*572 gen_stages\[2\]\.gen_csa\[0\]\.cout_wire\[5\]
*573 gen_stages\[2\]\.gen_csa\[0\]\.cout_wire\[6\]
*574 gen_stages\[2\]\.gen_csa\[0\]\.cout_wire\[7\]
*575 gen_stages\[2\]\.gen_csa\[0\]\.cout_wire\[8\]
*576 gen_stages\[2\]\.gen_csa\[0\]\.cout_wire\[9\]
*577 gen_stages\[2\]\.gen_csa\[0\]\.csa_mult\.PreSum\[10\]
*578 gen_stages\[2\]\.gen_csa\[0\]\.csa_mult\.PreSum\[11\]
*579 gen_stages\[2\]\.gen_csa\[0\]\.csa_mult\.PreSum\[12\]
*580 gen_stages\[2\]\.gen_csa\[0\]\.csa_mult\.PreSum\[13\]
*581 gen_stages\[2\]\.gen_csa\[0\]\.csa_mult\.PreSum\[14\]
*582 gen_stages\[2\]\.gen_csa\[0\]\.csa_mult\.PreSum\[15\]
*584 gen_stages\[2\]\.gen_csa\[0\]\.csa_mult\.PreSum\[4\]
*585 gen_stages\[2\]\.gen_csa\[0\]\.csa_mult\.PreSum\[5\]
*586 gen_stages\[2\]\.gen_csa\[0\]\.csa_mult\.PreSum\[6\]
*587 gen_stages\[2\]\.gen_csa\[0\]\.csa_mult\.PreSum\[7\]
*588 gen_stages\[2\]\.gen_csa\[0\]\.csa_mult\.PreSum\[8\]
*589 gen_stages\[2\]\.gen_csa\[0\]\.csa_mult\.PreSum\[9\]
*590 gen_stages\[2\]\.gen_csa\[1\]\.cout_wire\[10\]
*591 gen_stages\[2\]\.gen_csa\[1\]\.cout_wire\[11\]
*592 gen_stages\[2\]\.gen_csa\[1\]\.cout_wire\[12\]
*593 gen_stages\[2\]\.gen_csa\[1\]\.cout_wire\[13\]
*594 gen_stages\[2\]\.gen_csa\[1\]\.cout_wire\[14\]
*595 gen_stages\[2\]\.gen_csa\[1\]\.cout_wire\[15\]
*596 gen_stages\[2\]\.gen_csa\[1\]\.cout_wire\[16\]
*597 gen_stages\[2\]\.gen_csa\[1\]\.cout_wire\[17\]
*598 gen_stages\[2\]\.gen_csa\[1\]\.cout_wire\[18\]
*599 gen_stages\[2\]\.gen_csa\[1\]\.cout_wire\[19\]
*600 gen_stages\[2\]\.gen_csa\[1\]\.cout_wire\[9\]
*601 gen_stages\[2\]\.gen_csa\[1\]\.csa_mult\.B\[10\]
*602 gen_stages\[2\]\.gen_csa\[1\]\.csa_mult\.B\[11\]
*603 gen_stages\[2\]\.gen_csa\[1\]\.csa_mult\.B\[12\]
*604 gen_stages\[2\]\.gen_csa\[1\]\.csa_mult\.B\[13\]
*605 gen_stages\[2\]\.gen_csa\[1\]\.csa_mult\.B\[14\]
*606 gen_stages\[2\]\.gen_csa\[1\]\.csa_mult\.B\[15\]
*607 gen_stages\[2\]\.gen_csa\[1\]\.csa_mult\.B\[16\]
*608 gen_stages\[2\]\.gen_csa\[1\]\.csa_mult\.B\[17\]
*609 gen_stages\[2\]\.gen_csa\[1\]\.csa_mult\.B\[18\]
*610 gen_stages\[2\]\.gen_csa\[1\]\.csa_mult\.B\[19\]
*611 gen_stages\[2\]\.gen_csa\[1\]\.csa_mult\.B\[9\]
*612 gen_stages\[2\]\.gen_csa\[1\]\.csa_mult\.Cin\[10\]
*613 gen_stages\[2\]\.gen_csa\[1\]\.csa_mult\.Cin\[11\]
*614 gen_stages\[2\]\.gen_csa\[1\]\.csa_mult\.Cin\[12\]
*615 gen_stages\[2\]\.gen_csa\[1\]\.csa_mult\.Cin\[13\]
*616 gen_stages\[2\]\.gen_csa\[1\]\.csa_mult\.Cin\[14\]
*617 gen_stages\[2\]\.gen_csa\[1\]\.csa_mult\.Cin\[15\]
*618 gen_stages\[2\]\.gen_csa\[1\]\.csa_mult\.Cin\[16\]
*619 gen_stages\[2\]\.gen_csa\[1\]\.csa_mult\.Cin\[17\]
*620 gen_stages\[2\]\.gen_csa\[1\]\.csa_mult\.Cin\[18\]
*621 gen_stages\[2\]\.gen_csa\[1\]\.csa_mult\.Cin\[19\]
*622 gen_stages\[2\]\.gen_csa\[1\]\.csa_mult\.Cin\[20\]
*623 gen_stages\[2\]\.gen_csa\[1\]\.csa_mult\.PreSum\[10\]
*624 gen_stages\[2\]\.gen_csa\[1\]\.csa_mult\.PreSum\[11\]
*625 gen_stages\[2\]\.gen_csa\[1\]\.csa_mult\.PreSum\[12\]
*626 gen_stages\[2\]\.gen_csa\[1\]\.csa_mult\.PreSum\[13\]
*627 gen_stages\[2\]\.gen_csa\[1\]\.csa_mult\.PreSum\[14\]
*628 gen_stages\[2\]\.gen_csa\[1\]\.csa_mult\.PreSum\[15\]
*629 gen_stages\[2\]\.gen_csa\[1\]\.csa_mult\.PreSum\[16\]
*630 gen_stages\[2\]\.gen_csa\[1\]\.csa_mult\.PreSum\[17\]
*631 gen_stages\[2\]\.gen_csa\[1\]\.csa_mult\.PreSum\[18\]
*632 gen_stages\[2\]\.gen_csa\[1\]\.csa_mult\.PreSum\[19\]
*633 gen_stages\[2\]\.gen_csa\[1\]\.csa_mult\.PreSum\[9\]
*634 gen_stages\[3\]\.gen_csa\[0\]\.cout_wire\[10\]
*635 gen_stages\[3\]\.gen_csa\[0\]\.cout_wire\[11\]
*636 gen_stages\[3\]\.gen_csa\[0\]\.cout_wire\[12\]
*637 gen_stages\[3\]\.gen_csa\[0\]\.cout_wire\[13\]
*638 gen_stages\[3\]\.gen_csa\[0\]\.cout_wire\[14\]
*639 gen_stages\[3\]\.gen_csa\[0\]\.cout_wire\[15\]
*640 gen_stages\[3\]\.gen_csa\[0\]\.cout_wire\[16\]
*641 gen_stages\[3\]\.gen_csa\[0\]\.cout_wire\[17\]
*642 gen_stages\[3\]\.gen_csa\[0\]\.cout_wire\[18\]
*643 gen_stages\[3\]\.gen_csa\[0\]\.cout_wire\[4\]
*644 gen_stages\[3\]\.gen_csa\[0\]\.cout_wire\[5\]
*645 gen_stages\[3\]\.gen_csa\[0\]\.cout_wire\[6\]
*646 gen_stages\[3\]\.gen_csa\[0\]\.cout_wire\[7\]
*647 gen_stages\[3\]\.gen_csa\[0\]\.cout_wire\[8\]
*648 gen_stages\[3\]\.gen_csa\[0\]\.cout_wire\[9\]
*649 gen_stages\[3\]\.gen_csa\[0\]\.csa_mult\.PreSum\[10\]
*650 gen_stages\[3\]\.gen_csa\[0\]\.csa_mult\.PreSum\[11\]
*651 gen_stages\[3\]\.gen_csa\[0\]\.csa_mult\.PreSum\[12\]
*652 gen_stages\[3\]\.gen_csa\[0\]\.csa_mult\.PreSum\[13\]
*653 gen_stages\[3\]\.gen_csa\[0\]\.csa_mult\.PreSum\[14\]
*654 gen_stages\[3\]\.gen_csa\[0\]\.csa_mult\.PreSum\[15\]
*655 gen_stages\[3\]\.gen_csa\[0\]\.csa_mult\.PreSum\[16\]
*656 gen_stages\[3\]\.gen_csa\[0\]\.csa_mult\.PreSum\[17\]
*657 gen_stages\[3\]\.gen_csa\[0\]\.csa_mult\.PreSum\[18\]
*659 gen_stages\[3\]\.gen_csa\[0\]\.csa_mult\.PreSum\[5\]
*660 gen_stages\[3\]\.gen_csa\[0\]\.csa_mult\.PreSum\[6\]
*661 gen_stages\[3\]\.gen_csa\[0\]\.csa_mult\.PreSum\[7\]
*662 gen_stages\[3\]\.gen_csa\[0\]\.csa_mult\.PreSum\[8\]
*663 gen_stages\[3\]\.gen_csa\[0\]\.csa_mult\.PreSum\[9\]
*664 gen_stages\[4\]\.gen_csa\[0\]\.cout_wire\[10\]
*665 gen_stages\[4\]\.gen_csa\[0\]\.cout_wire\[11\]
*666 gen_stages\[4\]\.gen_csa\[0\]\.cout_wire\[12\]
*667 gen_stages\[4\]\.gen_csa\[0\]\.cout_wire\[13\]
*668 gen_stages\[4\]\.gen_csa\[0\]\.cout_wire\[14\]
*669 gen_stages\[4\]\.gen_csa\[0\]\.cout_wire\[15\]
*670 gen_stages\[4\]\.gen_csa\[0\]\.cout_wire\[16\]
*671 gen_stages\[4\]\.gen_csa\[0\]\.cout_wire\[17\]
*672 gen_stages\[4\]\.gen_csa\[0\]\.cout_wire\[18\]
*673 gen_stages\[4\]\.gen_csa\[0\]\.cout_wire\[19\]
*674 gen_stages\[4\]\.gen_csa\[0\]\.cout_wire\[5\]
*675 gen_stages\[4\]\.gen_csa\[0\]\.cout_wire\[6\]
*676 gen_stages\[4\]\.gen_csa\[0\]\.cout_wire\[7\]
*677 gen_stages\[4\]\.gen_csa\[0\]\.cout_wire\[8\]
*678 gen_stages\[4\]\.gen_csa\[0\]\.cout_wire\[9\]
*679 gen_stages\[4\]\.gen_csa\[0\]\.csa_mult\.PreSum\[10\]
*680 gen_stages\[4\]\.gen_csa\[0\]\.csa_mult\.PreSum\[11\]
*681 gen_stages\[4\]\.gen_csa\[0\]\.csa_mult\.PreSum\[12\]
*682 gen_stages\[4\]\.gen_csa\[0\]\.csa_mult\.PreSum\[13\]
*683 gen_stages\[4\]\.gen_csa\[0\]\.csa_mult\.PreSum\[14\]
*684 gen_stages\[4\]\.gen_csa\[0\]\.csa_mult\.PreSum\[15\]
*685 gen_stages\[4\]\.gen_csa\[0\]\.csa_mult\.PreSum\[16\]
*686 gen_stages\[4\]\.gen_csa\[0\]\.csa_mult\.PreSum\[17\]
*687 gen_stages\[4\]\.gen_csa\[0\]\.csa_mult\.PreSum\[18\]
*688 gen_stages\[4\]\.gen_csa\[0\]\.csa_mult\.PreSum\[19\]
*689 gen_stages\[4\]\.gen_csa\[0\]\.csa_mult\.PreSum\[20\]
*691 gen_stages\[4\]\.gen_csa\[0\]\.csa_mult\.PreSum\[6\]
*692 gen_stages\[4\]\.gen_csa\[0\]\.csa_mult\.PreSum\[7\]
*693 gen_stages\[4\]\.gen_csa\[0\]\.csa_mult\.PreSum\[8\]
*694 gen_stages\[4\]\.gen_csa\[0\]\.csa_mult\.PreSum\[9\]
*690 multiplicand[0]
*658 multiplicand[10]
*583 multiplicand[1]
*530 multiplicand[2]
*397 multiplicand[3]
*362 multiplicand[4]
*260 multiplicand[5]
*259 multiplicand[6]
*258 multiplicand[7]
*350 multiplicand[8]
*349 multiplicand[9]
*348 multiplier[0]
*343 multiplier[10]
*315 multiplier[1]
*275 multiplier[2]
*274 multiplier[3]
*273 multiplier[4]
*272 multiplier[5]
*271 multiplier[6]
*270 multiplier[7]
*269 multiplier[8]
*268 multiplier[9]
*695 net1
*704 net10
*705 net11
*823 net111
*758 net112
*759 net113
*760 net114
*761 net115
*824 net116
*762 net117
*763 net118
*764 net119
*706 net12
*825 net120
*765 net121
*766 net122
*826 net123
*768 net125
*769 net126
*771 net127
*772 net128
*774 net129
*707 net13
*776 net130
*775 net131
*777 net132
*779 net133
*780 net134
*782 net135
*783 net136
*784 net137
*785 net138
*786 net139
*708 net14
*787 net140
*781 net141
*788 net142
*778 net143
*773 net144
*790 net145
*792 net146
*793 net147
*794 net148
*789 net149
*709 net15
*796 net150
*795 net151
*798 net152
*797 net153
*800 net154
*799 net155
*791 net156
*802 net157
*801 net158
*803 net159
*710 net16
*770 net160
*827 net161
*804 net162
*828 net163
*805 net164
*806 net165
*829 net166
*807 net167
*808 net168
*830 net169
*711 net17
*831 net170
*809 net171
*812 net172
*811 net173
*814 net174
*813 net175
*816 net176
*815 net177
*817 net178
*810 net179
*712 net18
*832 net180
*818 net181
*833 net182
*819 net183
*834 net184
*820 net185
*835 net186
*836 net187
*821 net188
*822 net189
*713 net19
*837 net190
*838 net191
*839 net192
*840 net193
*841 net194
*842 net195
*843 net196
*844 net197
*845 net198
*846 net199
*696 net2
*714 net20
*715 net21
*848 net217
*849 net219
*716 net22
*850 net220
*851 net221
*852 net223
*717 net23
*853 net238
*854 net239
*718 net24
*855 net240
*856 net241
*857 net242
*847 net243
*767 net247
*858 net249
*719 net25
*720 net26
*721 net27
*722 net28
*723 net29
*697 net3
*724 net30
*725 net31
*726 net32
*727 net33
*728 net34
*729 net35
*730 net36
*731 net37
*732 net38
*733 net39
*698 net4
*734 net40
*735 net41
*736 net42
*737 net43
*738 net44
*739 net45
*699 net5
*700 net6
*701 net7
*702 net8
*703 net9
*267 result[0]
*266 result[10]
*265 result[11]
*264 result[12]
*263 result[13]
*262 result[14]
*261 result[15]
*742 result[16]
*743 result[17]
*744 result[18]
*745 result[19]
*746 result[1]
*747 result[20]
*748 result[21]
*749 result[22]
*750 result[2]
*751 result[3]
*752 result[4]
*753 result[5]
*754 result[6]
*755 result[7]
*756 result[8]
*757 result[9]
*1655 FILLER_0_150
*1656 FILLER_0_172
*1657 FILLER_0_194
*1649 FILLER_0_2
*1658 FILLER_0_208
*1659 FILLER_0_212
*1650 FILLER_0_24
*1651 FILLER_0_34
*1652 FILLER_0_36
*1653 FILLER_0_47
*1654 FILLER_0_61
*1816 FILLER_10_120
*1817 FILLER_10_126
*1818 FILLER_10_128
*1819 FILLER_10_146
*1820 FILLER_10_156
*1821 FILLER_10_180
*1822 FILLER_10_189
*1807 FILLER_10_2
*1823 FILLER_10_211
*1808 FILLER_10_32
*1809 FILLER_10_47
*1810 FILLER_10_67
*1811 FILLER_10_71
*1812 FILLER_10_75
*1813 FILLER_10_79
*1814 FILLER_10_89
*1815 FILLER_10_95
*1825 FILLER_11_11
*1833 FILLER_11_110
*1834 FILLER_11_114
*1826 FILLER_11_13
*1835 FILLER_11_132
*1836 FILLER_11_139
*1837 FILLER_11_149
*1838 FILLER_11_159
*1839 FILLER_11_163
*1840 FILLER_11_170
*1841 FILLER_11_178
*1842 FILLER_11_187
*1824 FILLER_11_2
*1827 FILLER_11_20
*1843 FILLER_11_208
*1844 FILLER_11_212
*1828 FILLER_11_22
*1829 FILLER_11_29
*1830 FILLER_11_31
*1831 FILLER_11_41
*1832 FILLER_11_70
*1851 FILLER_12_103
*1852 FILLER_12_107
*1853 FILLER_12_122
*1854 FILLER_12_126
*1855 FILLER_12_141
*1856 FILLER_12_145
*1857 FILLER_12_155
*1858 FILLER_12_163
*1859 FILLER_12_170
*1845 FILLER_12_2
*1846 FILLER_12_24
*1847 FILLER_12_44
*1848 FILLER_12_77
*1849 FILLER_12_79
*1850 FILLER_12_90
*1871 FILLER_13_104
*1872 FILLER_13_108
*1873 FILLER_13_110
*1874 FILLER_13_114
*1875 FILLER_13_121
*1876 FILLER_13_135
*1877 FILLER_13_139
*1878 FILLER_13_153
*1879 FILLER_13_157
*1861 FILLER_13_16
*1862 FILLER_13_18
*1880 FILLER_13_182
*1881 FILLER_13_189
*1860 FILLER_13_2
*1863 FILLER_13_22
*1864 FILLER_13_38
*1865 FILLER_13_42
*1866 FILLER_13_48
*1867 FILLER_13_50
*1868 FILLER_13_57
*1869 FILLER_13_65
*1870 FILLER_13_81
*1890 FILLER_14_106
*1891 FILLER_14_127
*1892 FILLER_14_129
*1893 FILLER_14_133
*1894 FILLER_14_143
*1895 FILLER_14_150
*1896 FILLER_14_164
*1897 FILLER_14_166
*1898 FILLER_14_181
*1899 FILLER_14_192
*1900 FILLER_14_199
*1882 FILLER_14_2
*1883 FILLER_14_34
*1884 FILLER_14_38
*1885 FILLER_14_45
*1886 FILLER_14_51
*1887 FILLER_14_58
*1888 FILLER_14_97
*1889 FILLER_14_99
*1906 FILLER_15_115
*1907 FILLER_15_119
*1908 FILLER_15_135
*1909 FILLER_15_145
*1910 FILLER_15_153
*1902 FILLER_15_16
*1911 FILLER_15_167
*1912 FILLER_15_173
*1903 FILLER_15_18
*1913 FILLER_15_192
*1914 FILLER_15_198
*1901 FILLER_15_2
*1915 FILLER_15_212
*1904 FILLER_15_35
*1905 FILLER_15_97
*1925 FILLER_16_100
*1926 FILLER_16_113
*1927 FILLER_16_122
*1928 FILLER_16_126
*1929 FILLER_16_130
*1930 FILLER_16_141
*1931 FILLER_16_143
*1932 FILLER_16_150
*1933 FILLER_16_159
*1934 FILLER_16_167
*1935 FILLER_16_177
*1936 FILLER_16_190
*1916 FILLER_16_2
*1937 FILLER_16_204
*1938 FILLER_16_211
*1918 FILLER_16_27
*1919 FILLER_16_31
*1920 FILLER_16_42
*1921 FILLER_16_66
*1922 FILLER_16_68
*1917 FILLER_16_8
*1923 FILLER_16_83
*1924 FILLER_16_98
*1950 FILLER_17_106
*1951 FILLER_17_110
*1952 FILLER_17_131
*1953 FILLER_17_154
*1954 FILLER_17_158
*1955 FILLER_17_165
*1956 FILLER_17_169
*1957 FILLER_17_178
*1958 FILLER_17_180
*1959 FILLER_17_189
*1939 FILLER_17_2
*1960 FILLER_17_211
*1941 FILLER_17_35
*1942 FILLER_17_54
*1943 FILLER_17_58
*1940 FILLER_17_6
*1944 FILLER_17_72
*1945 FILLER_17_80
*1946 FILLER_17_86
*1947 FILLER_17_88
*1948 FILLER_17_95
*1949 FILLER_17_99
*1967 FILLER_18_120
*1968 FILLER_18_124
*1969 FILLER_18_128
*1970 FILLER_18_145
*1971 FILLER_18_159
*1972 FILLER_18_167
*1973 FILLER_18_195
*1974 FILLER_18_199
*1961 FILLER_18_2
*1975 FILLER_18_201
*1976 FILLER_18_208
*1977 FILLER_18_212
*1963 FILLER_18_33
*1964 FILLER_18_56
*1965 FILLER_18_67
*1962 FILLER_18_8
*1966 FILLER_18_92
*1983 FILLER_19_113
*1984 FILLER_19_115
*1985 FILLER_19_119
*1986 FILLER_19_125
*1987 FILLER_19_136
*1988 FILLER_19_145
*1989 FILLER_19_153
*1979 FILLER_19_16
*1990 FILLER_19_160
*1991 FILLER_19_175
*1992 FILLER_19_177
*1980 FILLER_19_18
*1978 FILLER_19_2
*1993 FILLER_19_204
*1994 FILLER_19_210
*1995 FILLER_19_212
*1981 FILLER_19_43
*1982 FILLER_19_88
*1665 FILLER_1_116
*1666 FILLER_1_118
*1667 FILLER_1_136
*1668 FILLER_1_158
*1669 FILLER_1_180
*1660 FILLER_1_2
*1670 FILLER_1_202
*1671 FILLER_1_212
*1661 FILLER_1_24
*1662 FILLER_1_46
*1663 FILLER_1_56
*1664 FILLER_1_58
*2001 FILLER_20_128
*2002 FILLER_20_169
*2003 FILLER_20_179
*2004 FILLER_20_181
*2005 FILLER_20_195
*2006 FILLER_20_201
*2007 FILLER_20_208
*2008 FILLER_20_212
*1996 FILLER_20_26
*1997 FILLER_20_57
*1998 FILLER_20_81
*1999 FILLER_20_83
*2000 FILLER_20_93
*2018 FILLER_21_103
*2019 FILLER_21_107
*2020 FILLER_21_111
*2021 FILLER_21_116
*2022 FILLER_21_121
*2023 FILLER_21_131
*2024 FILLER_21_157
*2025 FILLER_21_159
*2010 FILLER_21_16
*2026 FILLER_21_171
*2027 FILLER_21_181
*2028 FILLER_21_196
*2009 FILLER_21_2
*2029 FILLER_21_203
*2011 FILLER_21_38
*2012 FILLER_21_40
*2013 FILLER_21_57
*2014 FILLER_21_64
*2015 FILLER_21_68
*2016 FILLER_21_86
*2017 FILLER_21_88
*2041 FILLER_22_102
*2042 FILLER_22_118
*2043 FILLER_22_122
*2044 FILLER_22_152
*2045 FILLER_22_158
*2046 FILLER_22_165
*2047 FILLER_22_178
*2048 FILLER_22_184
*2049 FILLER_22_186
*2050 FILLER_22_199
*2030 FILLER_22_20
*2031 FILLER_22_24
*2032 FILLER_22_37
*2033 FILLER_22_44
*2034 FILLER_22_48
*2035 FILLER_22_52
*2036 FILLER_22_54
*2037 FILLER_22_65
*2038 FILLER_22_84
*2039 FILLER_22_89
*2040 FILLER_22_94
*2057 FILLER_23_103
*2058 FILLER_23_109
*2059 FILLER_23_113
*2060 FILLER_23_127
*2061 FILLER_23_131
*2062 FILLER_23_133
*2063 FILLER_23_141
*2064 FILLER_23_160
*2065 FILLER_23_173
*2066 FILLER_23_179
*2067 FILLER_23_198
*2051 FILLER_23_2
*2068 FILLER_23_212
*2052 FILLER_23_34
*2053 FILLER_23_42
*2054 FILLER_23_70
*2055 FILLER_23_72
*2056 FILLER_23_96
*2076 FILLER_24_109
*2077 FILLER_24_139
*2078 FILLER_24_164
*2079 FILLER_24_186
*2069 FILLER_24_2
*2080 FILLER_24_208
*2081 FILLER_24_212
*2070 FILLER_24_43
*2071 FILLER_24_45
*2072 FILLER_24_63
*2073 FILLER_24_65
*2074 FILLER_24_79
*2075 FILLER_24_85
*2092 FILLER_25_102
*2093 FILLER_25_108
*2094 FILLER_25_115
*2095 FILLER_25_122
*2096 FILLER_25_136
*2097 FILLER_25_146
*2098 FILLER_25_162
*2099 FILLER_25_184
*2082 FILLER_25_2
*2100 FILLER_25_206
*2083 FILLER_25_21
*2101 FILLER_25_212
*2084 FILLER_25_25
*2085 FILLER_25_32
*2086 FILLER_25_46
*2087 FILLER_25_56
*2088 FILLER_25_85
*2089 FILLER_25_87
*2090 FILLER_25_91
*2091 FILLER_25_95
*2113 FILLER_26_113
*2114 FILLER_26_131
*2115 FILLER_26_145
*2116 FILLER_26_171
*2117 FILLER_26_193
*2102 FILLER_26_2
*2118 FILLER_26_207
*2104 FILLER_26_25
*2105 FILLER_26_29
*2106 FILLER_26_40
*2107 FILLER_26_42
*2108 FILLER_26_60
*2109 FILLER_26_70
*2110 FILLER_26_83
*2103 FILLER_26_9
*2111 FILLER_26_90
*2112 FILLER_26_98
*2126 FILLER_27_108
*2120 FILLER_27_12
*2127 FILLER_27_130
*2128 FILLER_27_134
*2129 FILLER_27_144
*2130 FILLER_27_146
*2131 FILLER_27_165
*2132 FILLER_27_183
*2133 FILLER_27_189
*2134 FILLER_27_196
*2119 FILLER_27_2
*2135 FILLER_27_210
*2136 FILLER_27_212
*2121 FILLER_27_43
*2122 FILLER_27_45
*2123 FILLER_27_63
*2124 FILLER_27_74
*2125 FILLER_27_93
*2146 FILLER_28_113
*2147 FILLER_28_120
*2148 FILLER_28_145
*2149 FILLER_28_152
*2139 FILLER_28_16
*2150 FILLER_28_160
*2151 FILLER_28_166
*2152 FILLER_28_174
*2153 FILLER_28_196
*2137 FILLER_28_2
*2154 FILLER_28_210
*2155 FILLER_28_212
*2140 FILLER_28_45
*2141 FILLER_28_47
*2142 FILLER_28_54
*2138 FILLER_28_6
*2143 FILLER_28_72
*2144 FILLER_28_76
*2145 FILLER_28_83
*2162 FILLER_29_106
*2163 FILLER_29_110
*2164 FILLER_29_120
*2165 FILLER_29_124
*2166 FILLER_29_139
*2167 FILLER_29_153
*2168 FILLER_29_175
*2169 FILLER_29_197
*2156 FILLER_29_2
*2170 FILLER_29_211
*2158 FILLER_29_27
*2159 FILLER_29_51
*2157 FILLER_29_6
*2160 FILLER_29_68
*2161 FILLER_29_91
*1679 FILLER_2_106
*1680 FILLER_2_133
*1681 FILLER_2_155
*1682 FILLER_2_177
*1683 FILLER_2_199
*1672 FILLER_2_2
*1673 FILLER_2_24
*1674 FILLER_2_46
*1675 FILLER_2_60
*1676 FILLER_2_64
*1677 FILLER_2_91
*1678 FILLER_2_93
*2175 FILLER_30_109
*2176 FILLER_30_130
*2177 FILLER_30_143
*2178 FILLER_30_145
*2179 FILLER_30_153
*2180 FILLER_30_175
*2181 FILLER_30_197
*2171 FILLER_30_2
*2182 FILLER_30_211
*2172 FILLER_30_38
*2173 FILLER_30_72
*2174 FILLER_30_78
*2187 FILLER_31_106
*2188 FILLER_31_116
*2189 FILLER_31_133
*2190 FILLER_31_137
*2191 FILLER_31_150
*2192 FILLER_31_172
*2193 FILLER_31_194
*2183 FILLER_31_2
*2194 FILLER_31_208
*2195 FILLER_31_212
*2184 FILLER_31_37
*2185 FILLER_31_79
*2186 FILLER_31_94
*2204 FILLER_32_104
*2205 FILLER_32_106
*2206 FILLER_32_110
*2207 FILLER_32_114
*2208 FILLER_32_131
*2209 FILLER_32_148
*2210 FILLER_32_170
*2211 FILLER_32_192
*2196 FILLER_32_2
*2212 FILLER_32_206
*2213 FILLER_32_212
*2198 FILLER_32_33
*2199 FILLER_32_71
*2200 FILLER_32_77
*2197 FILLER_32_8
*2201 FILLER_32_85
*2202 FILLER_32_89
*2203 FILLER_32_91
*2225 FILLER_33_100
*2226 FILLER_33_118
*2227 FILLER_33_122
*2228 FILLER_33_129
*2229 FILLER_33_164
*2230 FILLER_33_176
*2231 FILLER_33_198
*2214 FILLER_33_2
*2232 FILLER_33_212
*2215 FILLER_33_25
*2216 FILLER_33_31
*2217 FILLER_33_33
*2218 FILLER_33_54
*2219 FILLER_33_56
*2220 FILLER_33_63
*2221 FILLER_33_65
*2222 FILLER_33_69
*2223 FILLER_33_88
*2224 FILLER_33_98
*2236 FILLER_34_103
*2237 FILLER_34_107
*2238 FILLER_34_123
*2239 FILLER_34_128
*2240 FILLER_34_132
*2241 FILLER_34_151
*2242 FILLER_34_158
*2243 FILLER_34_180
*2233 FILLER_34_2
*2244 FILLER_34_202
*2245 FILLER_34_212
*2234 FILLER_34_51
*2235 FILLER_34_56
*2248 FILLER_35_10
*2255 FILLER_35_109
*2256 FILLER_35_123
*2257 FILLER_35_142
*2258 FILLER_35_146
*2259 FILLER_35_161
*2260 FILLER_35_183
*2246 FILLER_35_2
*2261 FILLER_35_205
*2262 FILLER_35_211
*2247 FILLER_35_6
*2249 FILLER_35_69
*2250 FILLER_35_71
*2251 FILLER_35_78
*2252 FILLER_35_82
*2253 FILLER_35_86
*2254 FILLER_35_94
*2264 FILLER_36_10
*2273 FILLER_36_100
*2274 FILLER_36_108
*2275 FILLER_36_110
*2276 FILLER_36_120
*2277 FILLER_36_127
*2278 FILLER_36_129
*2265 FILLER_36_14
*2279 FILLER_36_162
*2266 FILLER_36_18
*2280 FILLER_36_184
*2263 FILLER_36_2
*2281 FILLER_36_206
*2282 FILLER_36_212
*2267 FILLER_36_49
*2268 FILLER_36_51
*2269 FILLER_36_71
*2270 FILLER_36_77
*2271 FILLER_36_79
*2272 FILLER_36_94
*2294 FILLER_37_121
*2295 FILLER_37_134
*2296 FILLER_37_156
*2297 FILLER_37_178
*2285 FILLER_37_18
*2283 FILLER_37_2
*2298 FILLER_37_200
*2299 FILLER_37_210
*2300 FILLER_37_212
*2286 FILLER_37_24
*2284 FILLER_37_4
*2287 FILLER_37_42
*2288 FILLER_37_52
*2289 FILLER_37_65
*2290 FILLER_37_70
*2291 FILLER_37_75
*2292 FILLER_37_85
*2293 FILLER_37_99
*2307 FILLER_38_101
*2308 FILLER_38_115
*2309 FILLER_38_124
*2310 FILLER_38_131
*2311 FILLER_38_137
*2312 FILLER_38_139
*2313 FILLER_38_157
*2314 FILLER_38_179
*2301 FILLER_38_2
*2315 FILLER_38_201
*2316 FILLER_38_211
*2302 FILLER_38_25
*2303 FILLER_38_34
*2304 FILLER_38_36
*2305 FILLER_38_63
*2306 FILLER_38_79
*2329 FILLER_39_115
*2330 FILLER_39_128
*2331 FILLER_39_132
*2332 FILLER_39_147
*2318 FILLER_39_16
*2333 FILLER_39_161
*2334 FILLER_39_167
*2335 FILLER_39_174
*2336 FILLER_39_196
*2317 FILLER_39_2
*2337 FILLER_39_210
*2338 FILLER_39_212
*2319 FILLER_39_25
*2320 FILLER_39_35
*2321 FILLER_39_37
*2322 FILLER_39_47
*2323 FILLER_39_53
*2324 FILLER_39_70
*2325 FILLER_39_84
*2326 FILLER_39_89
*2327 FILLER_39_93
*2328 FILLER_39_99
*1690 FILLER_3_110
*1691 FILLER_3_114
*1692 FILLER_3_130
*1693 FILLER_3_144
*1694 FILLER_3_148
*1695 FILLER_3_170
*1696 FILLER_3_192
*1684 FILLER_3_2
*1697 FILLER_3_206
*1698 FILLER_3_212
*1685 FILLER_3_24
*1686 FILLER_3_34
*1687 FILLER_3_41
*1688 FILLER_3_63
*1689 FILLER_3_75
*2348 FILLER_40_110
*2349 FILLER_40_124
*2350 FILLER_40_135
*2351 FILLER_40_144
*2352 FILLER_40_166
*2353 FILLER_40_188
*2339 FILLER_40_2
*2354 FILLER_40_210
*2355 FILLER_40_212
*2340 FILLER_40_24
*2341 FILLER_40_46
*2342 FILLER_40_56
*2343 FILLER_40_60
*2344 FILLER_40_62
*2345 FILLER_40_75
*2346 FILLER_40_89
*2347 FILLER_40_91
*2364 FILLER_41_118
*2365 FILLER_41_132
*2366 FILLER_41_148
*2367 FILLER_41_158
*2368 FILLER_41_165
*2369 FILLER_41_187
*2356 FILLER_41_2
*2370 FILLER_41_209
*2357 FILLER_41_24
*2358 FILLER_41_30
*2359 FILLER_41_37
*2360 FILLER_41_42
*2361 FILLER_41_64
*2362 FILLER_41_74
*2363 FILLER_41_96
*1701 FILLER_4_10
*1708 FILLER_4_109
*1709 FILLER_4_122
*1710 FILLER_4_137
*1711 FILLER_4_155
*1712 FILLER_4_177
*1713 FILLER_4_199
*1699 FILLER_4_2
*1702 FILLER_4_27
*1703 FILLER_4_33
*1704 FILLER_4_48
*1705 FILLER_4_74
*1700 FILLER_4_8
*1706 FILLER_4_94
*1707 FILLER_4_96
*1721 FILLER_5_106
*1722 FILLER_5_128
*1723 FILLER_5_135
*1724 FILLER_5_139
*1725 FILLER_5_144
*1715 FILLER_5_16
*1726 FILLER_5_166
*1727 FILLER_5_188
*1714 FILLER_5_2
*1728 FILLER_5_210
*1729 FILLER_5_212
*1716 FILLER_5_30
*1717 FILLER_5_32
*1718 FILLER_5_74
*1719 FILLER_5_78
*1720 FILLER_5_85
*1738 FILLER_6_101
*1739 FILLER_6_112
*1740 FILLER_6_116
*1741 FILLER_6_122
*1742 FILLER_6_133
*1743 FILLER_6_135
*1744 FILLER_6_145
*1745 FILLER_6_149
*1746 FILLER_6_153
*1747 FILLER_6_158
*1748 FILLER_6_180
*1730 FILLER_6_2
*1749 FILLER_6_202
*1750 FILLER_6_212
*1731 FILLER_6_36
*1732 FILLER_6_40
*1733 FILLER_6_47
*1734 FILLER_6_51
*1735 FILLER_6_58
*1736 FILLER_6_63
*1737 FILLER_6_80
*1759 FILLER_7_104
*1760 FILLER_7_114
*1761 FILLER_7_116
*1762 FILLER_7_140
*1763 FILLER_7_158
*1764 FILLER_7_180
*1751 FILLER_7_2
*1765 FILLER_7_202
*1766 FILLER_7_212
*1752 FILLER_7_33
*1753 FILLER_7_35
*1754 FILLER_7_46
*1755 FILLER_7_58
*1756 FILLER_7_62
*1757 FILLER_7_73
*1758 FILLER_7_93
*1776 FILLER_8_110
*1777 FILLER_8_124
*1778 FILLER_8_130
*1779 FILLER_8_140
*1780 FILLER_8_145
*1781 FILLER_8_154
*1782 FILLER_8_156
*1783 FILLER_8_166
*1784 FILLER_8_188
*1767 FILLER_8_20
*1785 FILLER_8_210
*1786 FILLER_8_212
*1768 FILLER_8_26
*1769 FILLER_8_28
*1770 FILLER_8_35
*1771 FILLER_8_41
*1772 FILLER_8_49
*1773 FILLER_8_74
*1774 FILLER_8_90
*1775 FILLER_8_94
*1794 FILLER_9_100
*1795 FILLER_9_109
*1796 FILLER_9_125
*1797 FILLER_9_135
*1798 FILLER_9_137
*1799 FILLER_9_141
*1800 FILLER_9_146
*1801 FILLER_9_171
*1788 FILLER_9_18
*1802 FILLER_9_181
*1803 FILLER_9_186
*1804 FILLER_9_188
*1805 FILLER_9_195
*1787 FILLER_9_2
*1806 FILLER_9_209
*1789 FILLER_9_44
*1790 FILLER_9_54
*1791 FILLER_9_56
*1792 FILLER_9_60
*1793 FILLER_9_66
*1490 PHY_EDGE_ROW_0_Left_42
*1448 PHY_EDGE_ROW_0_Right_0
*1500 PHY_EDGE_ROW_10_Left_52
*1458 PHY_EDGE_ROW_10_Right_10
*1501 PHY_EDGE_ROW_11_Left_53
*1459 PHY_EDGE_ROW_11_Right_11
*1502 PHY_EDGE_ROW_12_Left_54
*1460 PHY_EDGE_ROW_12_Right_12
*1503 PHY_EDGE_ROW_13_Left_55
*1461 PHY_EDGE_ROW_13_Right_13
*1504 PHY_EDGE_ROW_14_Left_56
*1462 PHY_EDGE_ROW_14_Right_14
*1505 PHY_EDGE_ROW_15_Left_57
*1463 PHY_EDGE_ROW_15_Right_15
*1506 PHY_EDGE_ROW_16_Left_58
*1464 PHY_EDGE_ROW_16_Right_16
*1507 PHY_EDGE_ROW_17_Left_59
*1465 PHY_EDGE_ROW_17_Right_17
*1508 PHY_EDGE_ROW_18_Left_60
*1466 PHY_EDGE_ROW_18_Right_18
*1509 PHY_EDGE_ROW_19_Left_61
*1467 PHY_EDGE_ROW_19_Right_19
*1491 PHY_EDGE_ROW_1_Left_43
*1449 PHY_EDGE_ROW_1_Right_1
*1510 PHY_EDGE_ROW_20_Left_62
*1468 PHY_EDGE_ROW_20_Right_20
*1511 PHY_EDGE_ROW_21_Left_63
*1469 PHY_EDGE_ROW_21_Right_21
*1512 PHY_EDGE_ROW_22_Left_64
*1470 PHY_EDGE_ROW_22_Right_22
*1513 PHY_EDGE_ROW_23_Left_65
*1471 PHY_EDGE_ROW_23_Right_23
*1514 PHY_EDGE_ROW_24_Left_66
*1472 PHY_EDGE_ROW_24_Right_24
*1515 PHY_EDGE_ROW_25_Left_67
*1473 PHY_EDGE_ROW_25_Right_25
*1516 PHY_EDGE_ROW_26_Left_68
*1474 PHY_EDGE_ROW_26_Right_26
*1517 PHY_EDGE_ROW_27_Left_69
*1475 PHY_EDGE_ROW_27_Right_27
*1518 PHY_EDGE_ROW_28_Left_70
*1476 PHY_EDGE_ROW_28_Right_28
*1519 PHY_EDGE_ROW_29_Left_71
*1477 PHY_EDGE_ROW_29_Right_29
*1492 PHY_EDGE_ROW_2_Left_44
*1450 PHY_EDGE_ROW_2_Right_2
*1520 PHY_EDGE_ROW_30_Left_72
*1478 PHY_EDGE_ROW_30_Right_30
*1521 PHY_EDGE_ROW_31_Left_73
*1479 PHY_EDGE_ROW_31_Right_31
*1522 PHY_EDGE_ROW_32_Left_74
*1480 PHY_EDGE_ROW_32_Right_32
*1523 PHY_EDGE_ROW_33_Left_75
*1481 PHY_EDGE_ROW_33_Right_33
*1524 PHY_EDGE_ROW_34_Left_76
*1482 PHY_EDGE_ROW_34_Right_34
*1525 PHY_EDGE_ROW_35_Left_77
*1483 PHY_EDGE_ROW_35_Right_35
*1526 PHY_EDGE_ROW_36_Left_78
*1484 PHY_EDGE_ROW_36_Right_36
*1527 PHY_EDGE_ROW_37_Left_79
*1485 PHY_EDGE_ROW_37_Right_37
*1528 PHY_EDGE_ROW_38_Left_80
*1486 PHY_EDGE_ROW_38_Right_38
*1529 PHY_EDGE_ROW_39_Left_81
*1487 PHY_EDGE_ROW_39_Right_39
*1493 PHY_EDGE_ROW_3_Left_45
*1451 PHY_EDGE_ROW_3_Right_3
*1530 PHY_EDGE_ROW_40_Left_82
*1488 PHY_EDGE_ROW_40_Right_40
*1531 PHY_EDGE_ROW_41_Left_83
*1489 PHY_EDGE_ROW_41_Right_41
*1494 PHY_EDGE_ROW_4_Left_46
*1452 PHY_EDGE_ROW_4_Right_4
*1495 PHY_EDGE_ROW_5_Left_47
*1453 PHY_EDGE_ROW_5_Right_5
*1496 PHY_EDGE_ROW_6_Left_48
*1454 PHY_EDGE_ROW_6_Right_6
*1497 PHY_EDGE_ROW_7_Left_49
*1455 PHY_EDGE_ROW_7_Right_7
*1498 PHY_EDGE_ROW_8_Left_50
*1456 PHY_EDGE_ROW_8_Right_8
*1499 PHY_EDGE_ROW_9_Left_51
*1457 PHY_EDGE_ROW_9_Right_9
*859 _350_
*860 _351_
*861 _352_
*862 _353_
*863 _354_
*864 _355_
*865 _356_
*867 _358_
*868 _359_
*869 _360_
*870 _361_
*871 _362_
*872 _363_
*873 _364_
*874 _365_
*875 _366_
*877 _368_
*878 _369_
*879 _370_
*880 _371_
*881 _372_
*882 _373_
*883 _374_
*884 _375_
*887 _378_
*888 _379_
*889 _380_
*890 _381_
*891 _382_
*892 _383_
*893 _384_
*894 _385_
*895 _386_
*896 _387_
*897 _388_
*898 _389_
*899 _390_
*900 _391_
*901 _392_
*902 _393_
*903 _394_
*904 _395_
*905 _396_
*906 _397_
*907 _398_
*908 _399_
*909 _400_
*910 _401_
*911 _402_
*913 _404_
*914 _405_
*915 _406_
*916 _407_
*917 _408_
*918 _409_
*919 _410_
*920 _411_
*921 _412_
*923 _414_
*925 _416_
*927 _418_
*929 _420_
*931 _422_
*933 _424_
*935 _426_
*937 _428_
*938 _429_
*939 _430_
*940 _431_
*941 _432_
*942 _433_
*943 _434_
*944 _435_
*945 _436_
*946 _437_
*947 _438_
*948 _439_
*949 _440_
*950 _441_
*951 _442_
*952 _443_
*953 _444_
*954 _445_
*955 _446_
*956 _447_
*957 _448_
*958 _449_
*959 _450_
*960 _451_
*961 _452_
*962 _453_
*963 _454_
*964 _455_
*965 _456_
*966 _457_
*967 _458_
*969 _460_
*970 _461_
*971 _462_
*972 _463_
*973 _464_
*974 _465_
*975 _466_
*976 _467_
*977 _468_
*978 _469_
*979 _470_
*980 _471_
*981 _472_
*982 _473_
*983 _474_
*984 _475_
*985 _476_
*986 _477_
*987 _478_
*988 _479_
*989 _480_
*990 _481_
*991 _482_
*992 _483_
*993 _484_
*994 _485_
*995 _486_
*996 _487_
*997 _488_
*998 _489_
*999 _490_
*1000 _491_
*1001 _492_
*1002 _493_
*1003 _494_
*1004 _495_
*1005 _496_
*1006 _497_
*1007 _498_
*1008 _499_
*1009 _500_
*1011 _502_
*1012 _503_
*1013 _504_
*1014 _505_
*1015 _506_
*1016 _507_
*1017 _508_
*1018 _509_
*1019 _510_
*1020 _511_
*1021 _512_
*1022 _513_
*1023 _514_
*1024 _515_
*1025 _516_
*1026 _517_
*1027 _518_
*1028 _519_
*1029 _520_
*1030 _521_
*1031 _522_
*1032 _523_
*1033 _524_
*1034 _525_
*1035 _526_
*1036 _527_
*1037 _528_
*1038 _529_
*1039 _530_
*1040 _531_
*1041 _532_
*1042 _533_
*1043 _534_
*1044 _535_
*1045 _536_
*1046 _537_
*1047 _538_
*1048 _539_
*1049 _540_
*1050 _541_
*1051 _542_
*1052 _543_
*1053 _544_
*1054 _545_
*1055 _546_
*1056 _547_
*1057 _548_
*1058 _549_
*1059 _550_
*1060 _551_
*1061 _552_
*1062 _553_
*1063 _554_
*1064 _555_
*1065 _556_
*1066 _557_
*1067 _558_
*1068 _559_
*1069 _560_
*1070 _561_
*1071 _562_
*1072 _563_
*1073 _564_
*1074 _565_
*1075 _566_
*1076 _567_
*1077 _568_
*1078 _569_
*1079 _570_
*1080 _571_
*1081 _572_
*1082 _573_
*1083 _574_
*1084 _575_
*1085 _576_
*1086 _577_
*1087 _578_
*1088 _579_
*1089 _580_
*1090 _581_
*1091 _582_
*1092 _583_
*1093 _584_
*1094 _585_
*1095 _586_
*1096 _587_
*1097 _588_
*1098 _589_
*1099 _590_
*1100 _591_
*1101 _592_
*1102 _593_
*1103 _594_
*1104 _595_
*1105 _596_
*1106 _597_
*1107 _598_
*1108 _599_
*1109 _600_
*1110 _601_
*1111 _602_
*1112 _603_
*1113 _604_
*1114 _605_
*1115 _606_
*1116 _607_
*1117 _608_
*1118 _609_
*1119 _610_
*1121 _612_
*1122 _613_
*1123 _614_
*1124 _615_
*1125 _616_
*1126 _617_
*1127 _618_
*1128 _619_
*1129 _620_
*1130 _621_
*1131 _622_
*1132 _623_
*1133 _624_
*1134 _625_
*1135 _626_
*1136 _627_
*1137 _628_
*1138 _629_
*1139 _630_
*1140 _631_
*1141 _632_
*1142 _633_
*1143 _634_
*1144 _635_
*1145 _636_
*1146 _637_
*1147 _638_
*1148 _639_
*1149 _640_
*1150 _641_
*1151 _642_
*1152 _643_
*1153 _644_
*1154 _645_
*1155 _646_
*1156 _647_
*1157 _648_
*1158 _649_
*1159 _650_
*1160 _651_
*1161 _652_
*1162 _653_
*1163 _654_
*1164 _655_
*1165 _656_
*1166 _657_
*1167 _658_
*1168 _659_
*1169 _660_
*1170 _661_
*1171 _662_
*1172 _663_
*1173 _664_
*1175 _666_
*1176 _667_
*1177 _668_
*1178 _669_
*1179 _670_
*1180 _671_
*1181 _672_
*1182 _673_
*1183 _674_
*1184 _675_
*1185 _676_
*1186 _677_
*1187 _678_
*1188 _679_
*1189 _680_
*1190 _681_
*1191 _682_
*1192 _683_
*1194 _685_
*1195 _686_
*1196 _687_
*1197 _688_
*1198 _689_
*1199 _690_
*1200 _691_
*1201 _692_
*1202 _693_
*1204 _695_
*1205 _696_
*1206 _697_
*1207 _698_
*1208 _699_
*1209 _700_
*1210 _701_
*1211 _702_
*1212 _703_
*1213 _704_
*1215 _706_
*1216 _707_
*1217 _708_
*1218 _709_
*1219 _710_
*1220 _711_
*1221 _712_
*1222 _713_
*1223 _714_
*1224 _715_
*1225 _716_
*1226 _717_
*1227 _718_
*1229 _720_
*1230 _721_
*1231 _722_
*1232 _723_
*1233 _724_
*1234 _725_
*1235 _726_
*1236 _727_
*1237 _728_
*1239 _730_
*1240 _731_
*1241 _732_
*1242 _733_
*1243 _734_
*1244 _735_
*1245 _736_
*1246 _737_
*1247 _738_
*1248 _739_
*1249 _740_
*1250 _741_
*1251 _742_
*1252 _743_
*1253 _744_
*1254 _745_
*1255 _746_
*1256 _747_
*1257 _748_
*1258 _749_
*1259 _750_
*1260 _751_
*1261 _752_
*1262 _753_
*1263 _754_
*1264 _755_
*1265 _756_
*1266 _757_
*1267 _758_
*1268 _759_
*1269 _760_
*1270 _761_
*1271 _762_
*1273 _764_
*1274 _765_
*1275 _766_
*1276 _767_
*1277 _768_
*1278 _769_
*1279 _770_
*1280 _771_
*1281 _772_
*1282 _773_
*1283 _774_
*1284 _775_
*1285 _776_
*1286 _777_
*1287 _778_
*1288 _779_
*1289 _780_
*1290 _781_
*1291 _782_
*1292 _783_
*1293 _784_
*1294 _785_
*1295 _786_
*1296 _787_
*1297 _788_
*1298 _789_
*1299 _790_
*1300 _791_
*1301 _792_
*1302 _793_
*1303 _794_
*1304 _795_
*1305 _796_
*1306 _797_
*1307 _798_
*1308 _799_
*1309 _800_
*1310 _801_
*1311 _802_
*1312 _803_
*1313 _804_
*1314 _805_
*1315 _806_
*1316 _807_
*1317 _808_
*1318 _809_
*1319 _810_
*1320 _811_
*1321 _812_
*1322 _813_
*1323 _814_
*1324 _815_
*1325 _816_
*1326 _817_
*1327 _818_
*1328 _819_
*1329 _820_
*1330 _821_
*1331 _822_
*1332 _823_
*1333 _824_
*1334 _825_
*1335 _826_
*1336 _827_
*1337 _828_
*1338 _829_
*1339 _830_
*1340 _831_
*1341 _832_
*1342 _833_
*1343 _834_
*1344 _835_
*1345 _836_
*1346 _837_
*1347 _838_
*1348 _839_
*1349 _840_
*1350 _841_
*1351 _842_
*1352 _843_
*1353 _844_
*1354 _845_
*1355 _846_
*1356 _847_
*1357 _848_
*1358 _849_
*1359 _850_
*1360 _851_
*1361 _852_
*1362 _853_
*1363 _854_
*1364 _855_
*1365 _856_
*1366 _857_
*1367 _858_
*1368 _859_
*1369 _860_
*1370 _861_
*1371 _862_
*1372 _863_
*1373 _864_
*1374 _865_
*1375 _866_
*1376 _867_
*1377 _868_
*1378 _869_
*1379 _870_
*1380 _871_
*1381 _872_
*1382 _873_
*1383 _874_
*1384 _875_
*1385 _876_
*1386 _877_
*1387 _878_
*1388 _879_
*1389 _880_
*1390 _881_
*1391 _882_
*1392 _883_
*1393 _884_
*1394 _885_
*1395 _886_
*1396 _887_
*1397 _888_
*1398 _889_
*1399 _890_
*1400 _891_
*1401 _892_
*1402 _893_
*1403 _894_
*1404 _895_
*1405 _896_
*1406 _897_
*1407 _898_
*1408 _899_
*1409 _900_
*1410 _901_
*1411 _902_
*1412 _903_
*1413 _904_
*1414 _905_
*1415 _906_
*1416 _907_
*1417 _908_
*1418 _909_
*1419 _910_
*1420 _911_
*1421 _912_
*1422 _913_
*1423 _914_
*1424 _915_
*1425 _916_
*1426 _917_
*1427 _918_
*1428 _919_
*1429 _920_
*1430 _921_
*1431 _922_
*1432 _923_
*1433 _924_
*1434 _925_
*1435 _926_
*1436 _927_
*1437 _928_
*1438 _929_
*1439 _930_
*1440 _931_
*1441 _932_
*1612 clone189
*1627 clone190
*1447 input1
*1214 input10
*1203 input11
*1193 input12
*1174 input13
*1120 input14
*1010 input15
*968 input16
*936 input17
*934 input18
*932 input19
*1446 input2
*930 input20
*928 input21
*926 input22
*1445 input3
*1444 input4
*1443 input5
*1442 input6
*1272 input7
*1238 input8
*1228 input9
*924 output23
*922 output24
*912 output25
*886 output26
*885 output27
*876 output28
*866 output29
*1532 output30
*1533 output31
*1534 output32
*1535 output33
*1536 output34
*1537 output35
*1538 output36
*1539 output37
*1540 output38
*1541 output39
*1542 output40
*1543 output41
*1544 output42
*1545 output43
*1546 output44
*1547 output45
*1613 place111
*1548 place112
*1549 place113
*1550 place114
*1551 place115
*1614 place116
*1552 place117
*1553 place118
*1554 place119
*1615 place120
*1555 place121
*1556 place122
*1616 place123
*1558 place125
*1559 place126
*1561 place127
*1562 place128
*1564 place129
*1566 place130
*1565 place131
*1567 place132
*1569 place133
*1570 place134
*1572 place135
*1573 place136
*1574 place137
*1575 place138
*1576 place139
*1577 place140
*1571 place141
*1578 place142
*1568 place143
*1563 place144
*1580 place145
*1582 place146
*1583 place147
*1584 place148
*1579 place149
*1586 place150
*1585 place151
*1588 place152
*1587 place153
*1590 place154
*1589 place155
*1581 place156
*1592 place157
*1591 place158
*1593 place159
*1560 place160
*1617 place161
*1594 place162
*1618 place163
*1595 place164
*1596 place165
*1619 place166
*1597 place167
*1598 place168
*1620 place169
*1621 place170
*1599 place171
*1602 place172
*1601 place173
*1604 place174
*1603 place175
*1606 place176
*1605 place177
*1607 place178
*1600 place179
*1622 place180
*1608 place181
*1623 place182
*1609 place183
*1624 place184
*1610 place185
*1625 place186
*1626 place187
*1611 rebuffer188
*1628 rebuffer191
*1629 rebuffer192
*1630 rebuffer193
*1631 rebuffer194
*1632 rebuffer195
*1633 rebuffer196
*1634 rebuffer197
*1635 rebuffer198
*1636 rebuffer199
*1638 rebuffer217
*1639 rebuffer219
*1640 rebuffer220
*1641 rebuffer221
*1642 rebuffer223
*1643 rebuffer238
*1644 rebuffer239
*1645 rebuffer240
*1646 rebuffer241
*1647 rebuffer242
*1637 rebuffer243
*1557 rebuffer247
*1648 rebuffer249

*PORTS
multiplicand[0] I
multiplicand[10] I
multiplicand[1] I
multiplicand[2] I
multiplicand[3] I
multiplicand[4] I
multiplicand[5] I
multiplicand[6] I
multiplicand[7] I
multiplicand[8] I
multiplicand[9] I
multiplier[0] I
multiplier[10] I
multiplier[1] I
multiplier[2] I
multiplier[3] I
multiplier[4] I
multiplier[5] I
multiplier[6] I
multiplier[7] I
multiplier[8] I
multiplier[9] I
result[0] O
result[10] O
result[11] O
result[12] O
result[13] O
result[14] O
result[15] O
result[16] O
result[17] O
result[18] O
result[19] O
result[1] O
result[20] O
result[21] O
result[22] O
result[2] O
result[3] O
result[4] O
result[5] O
result[6] O
result[7] O
result[8] O
result[9] O

*D_NET *1 5.90874e-05
*CONN
*I *1314:B I *D FAx1_ASAP7_75t_R
*I *948:Y O *D INVx1_ASAP7_75t_R
*CAP
1 *1314:B 1.78188e-05
2 *948:Y 1.78188e-05
3 *1314:B *1314:A 1.55851e-05
4 *1314:B *175:8 7.86466e-06
*RES
1 *948:Y *1314:B 31.3729 
*END

*D_NET *2 7.81282e-05
*CONN
*I *1552:A I *D BUFx3_ASAP7_75t_R
*I *1043:A2 I *D OA21x2_ASAP7_75t_R
*I *1314:CON O *D FAx1_ASAP7_75t_R
*CAP
1 *1552:A 0
2 *1043:A2 0
3 *1314:CON 1.09811e-05
4 *2:14 2.55963e-05
5 *2:8 3.65774e-05
6 *2:8 *675:23 0
7 *2:14 *1040:B 0
8 *2:14 *675:23 4.97342e-06
*RES
1 *1314:CON *2:8 43.4107 
2 *2:8 *2:14 37.3323 
3 *2:14 *1043:A2 34.4 
4 *2:8 *1552:A 17.2 
*END

*D_NET *3 2.04629e-05
*CONN
*I *1220:A I *D INVx1_ASAP7_75t_R
*I *1314:SN O *D FAx1_ASAP7_75t_R
*CAP
1 *1220:A 0
2 *1314:SN 1.02315e-05
3 *3:10 1.02315e-05
*RES
1 *1314:SN *3:10 39.3835 
2 *3:10 *1220:A 34.4 
*END

*D_NET *4 0.000213896
*CONN
*I *1170:A I *D INVx1_ASAP7_75t_R
*I *1315:CON O *D FAx1_ASAP7_75t_R
*CAP
1 *1170:A 4.36573e-06
2 *1315:CON 6.61494e-06
3 *4:12 7.97573e-05
4 *4:8 8.20065e-05
5 *1170:A *245:8 3.55124e-06
6 *4:8 *5:10 1.86013e-06
7 *4:12 *245:12 4.18905e-06
8 *4:12 *490:12 3.15514e-05
*RES
1 *1315:CON *4:8 38.9053 
2 *4:8 *4:12 47.685 
3 *4:12 *1170:A 37.779 
*END

*D_NET *5 0.000198646
*CONN
*I *1171:A I *D INVx1_ASAP7_75t_R
*I *1315:SN O *D FAx1_ASAP7_75t_R
*CAP
1 *1171:A 0
2 *1315:SN 1.1591e-05
3 *5:22 3.23741e-05
4 *5:16 6.59106e-05
5 *5:10 4.51275e-05
6 *5:10 *806:29 0
7 *5:16 *258:29 0
8 *5:16 *714:24 6.72565e-06
9 *5:16 *837:12 6.60541e-07
10 *5:16 *837:18 3.22506e-06
11 *5:22 *244:8 5.53329e-06
12 *5:22 *502:8 7.95905e-06
13 *5:22 *511:8 1.01185e-05
14 *5:22 *844:10 7.56095e-06
15 *4:8 *5:10 1.86013e-06
*RES
1 *1315:SN *5:10 40.7347 
2 *5:10 *5:16 47.8192 
3 *5:16 *5:22 39.8629 
4 *5:22 *1171:A 17.2 
*END

*D_NET *6 0.000156344
*CONN
*I *1167:A I *D INVx1_ASAP7_75t_R
*I *1316:CON O *D FAx1_ASAP7_75t_R
*CAP
1 *1167:A 0
2 *1316:CON 2.35874e-05
3 *6:9 3.85874e-05
4 *6:7 6.21748e-05
5 *6:7 *707:26 2.03526e-06
6 *6:9 *1360:B 5.37866e-07
7 *6:9 *1360:CI 3.90551e-06
8 *6:9 *95:8 4.26863e-06
9 *6:9 *488:8 0
10 *6:9 *511:14 1.3183e-05
11 *6:9 *707:32 8.06436e-06
12 *6:9 *716:97 0
13 *6:9 *822:8 0
*RES
1 *1316:CON *6:7 30.3032 
2 *6:7 *6:9 33.2268 
3 *6:9 *1167:A 34.4 
*END

*D_NET *7 0.000110131
*CONN
*I *1168:A I *D INVx1_ASAP7_75t_R
*I *1316:SN O *D FAx1_ASAP7_75t_R
*CAP
1 *1168:A 1.79193e-05
2 *1316:SN 7.46129e-06
3 *7:8 2.53806e-05
4 *1168:A *1635:A 0
5 *1168:A *242:14 3.65663e-06
6 *1168:A *510:10 5.41446e-06
7 *7:8 *1316:B 1.48392e-05
8 *7:8 *1316:CI 3.54601e-05
*RES
1 *1316:SN *7:8 46.2265 
2 *7:8 *1168:A 42.4224 
*END

*D_NET *8 3.49662e-05
*CONN
*I *1137:A I *D INVx1_ASAP7_75t_R
*I *1317:CON O *D FAx1_ASAP7_75t_R
*CAP
1 *1137:A 1.72074e-05
2 *1317:CON 1.72074e-05
3 *1137:A *1360:A 5.51397e-07
*RES
1 *1317:CON *1137:A 27.0943 
*END

*D_NET *9 1.99693e-05
*CONN
*I *1138:A I *D INVx1_ASAP7_75t_R
*I *1317:SN O *D FAx1_ASAP7_75t_R
*CAP
1 *1138:A 0
2 *1317:SN 8.87098e-06
3 *9:10 8.87098e-06
4 *9:10 *476:8 2.22736e-06
*RES
1 *1317:SN *9:10 39.3835 
2 *9:10 *1138:A 34.4 
*END

*D_NET *10 0.000128166
*CONN
*I *983:A I *D INVx1_ASAP7_75t_R
*I *1318:CON O *D FAx1_ASAP7_75t_R
*CAP
1 *983:A 1.64475e-05
2 *1318:CON 2.1338e-05
3 *10:6 3.77855e-05
4 *983:A *715:82 1.28104e-05
5 *10:6 *1318:B 3.8317e-05
6 *10:6 *701:24 0
7 *10:6 *713:47 0
8 *10:6 *715:76 4.43863e-07
9 *10:6 *715:82 1.02359e-06
*RES
1 *1318:CON *10:6 35.7845 
2 *10:6 *983:A 43.492 
*END

*D_NET *11 5.94325e-05
*CONN
*I *984:A I *D INVx1_ASAP7_75t_R
*I *1318:SN O *D FAx1_ASAP7_75t_R
*CAP
1 *984:A 8.73958e-06
2 *1318:SN 7.71038e-06
3 *11:8 1.645e-05
4 *984:A *432:6 1.40465e-05
5 *984:A *508:8 4.57952e-06
6 *984:A *811:25 2.27522e-06
7 *11:8 *1318:B 6.72332e-07
8 *11:8 *705:121 1.00899e-06
9 *11:8 *811:25 3.95007e-06
*RES
1 *1318:SN *11:8 40.0317 
2 *11:8 *984:A 44.0269 
*END

*D_NET *12 1.31477e-05
*CONN
*I *942:A I *D INVx1_ASAP7_75t_R
*I *1319:CON O *D FAx1_ASAP7_75t_R
*CAP
1 *942:A 0
2 *1319:CON 6.57385e-06
3 *12:8 6.57385e-06
4 *12:8 *1397:B 0
5 *12:8 *110:10 0
*RES
1 *1319:CON *12:8 38.9053 
2 *12:8 *942:A 17.2 
*END

*D_NET *13 5.13258e-05
*CONN
*I *943:A I *D INVx1_ASAP7_75t_R
*I *1319:SN O *D FAx1_ASAP7_75t_R
*CAP
1 *943:A 0
2 *1319:SN 2.22717e-05
3 *13:10 2.22717e-05
4 *13:10 *1208:A 4.03043e-07
5 *13:10 *1319:B 0
6 *13:10 *1363:A 3.20959e-06
7 *13:10 *110:10 1.88168e-06
8 *13:10 *496:10 1.09842e-06
9 *13:10 *700:77 1.89667e-07
10 *13:10 *714:93 0
*RES
1 *1319:SN *13:10 47.831 
2 *13:10 *943:A 34.4 
*END

*D_NET *14 0.000221676
*CONN
*I *944:A I *D INVx1_ASAP7_75t_R
*I *1320:CON O *D FAx1_ASAP7_75t_R
*CAP
1 *944:A 0
2 *1320:CON 6.96576e-06
3 *14:18 1.24545e-05
4 *14:10 9.21372e-05
5 *14:8 8.66484e-05
6 *14:8 *1235:A 0
7 *14:8 *1631:A 8.2174e-07
8 *14:10 *1235:B 0
9 *14:10 *699:71 5.09299e-06
10 *14:10 *714:110 7.86466e-06
11 *14:10 *714:123 1.04475e-06
12 *14:18 *100:10 0
13 *14:18 *462:10 7.51655e-06
14 *14:18 *807:33 1.12894e-06
*RES
1 *1320:CON *14:8 38.9053 
2 *14:8 *14:10 34.7636 
3 *14:10 *14:18 43.7754 
4 *14:18 *944:A 17.2 
*END

*D_NET *15 0.000116067
*CONN
*I *945:A I *D INVx1_ASAP7_75t_R
*I *1320:SN O *D FAx1_ASAP7_75t_R
*CAP
1 *945:A 0
2 *1320:SN 1.43715e-05
3 *15:14 3.83539e-05
4 *15:10 5.27254e-05
5 *15:10 *1320:A 1.12894e-06
6 *15:10 *1631:A 3.73039e-06
7 *15:14 *102:12 0
8 *15:14 *506:10 2.27479e-06
9 *15:14 *699:63 3.48165e-06
*RES
1 *1320:SN *15:10 41.5228 
2 *15:10 *15:14 34.8492 
3 *15:14 *945:A 17.2 
*END

*D_NET *16 2.28365e-05
*CONN
*I *1259:A I *D INVx1_ASAP7_75t_R
*I *1321:CON O *D FAx1_ASAP7_75t_R
*CAP
1 *1259:A 0
2 *1321:CON 8.78101e-06
3 *16:8 8.78101e-06
4 *16:8 *1321:A 2.7611e-06
5 *16:8 *699:67 2.51335e-06
*RES
1 *1321:CON *16:8 42.2843 
2 *16:8 *1259:A 17.2 
*END

*D_NET *17 0.000134796
*CONN
*I *1260:A I *D INVx1_ASAP7_75t_R
*I *1321:SN O *D FAx1_ASAP7_75t_R
*CAP
1 *1260:A 0
2 *1321:SN 0
3 *17:18 3.49063e-06
4 *17:12 3.06644e-05
5 *17:6 2.71738e-05
6 *17:12 *1321:A 0
7 *17:12 *102:8 1.31686e-05
8 *17:12 *461:8 3.18126e-06
9 *17:12 *699:63 3.67134e-05
10 *17:12 *699:67 1.61558e-05
11 *17:18 *103:8 4.24807e-06
12 *17:18 *699:63 0
*RES
1 *1321:SN *17:6 34.4 
2 *17:6 *17:12 39.4716 
3 *17:12 *17:18 37.779 
4 *17:18 *1260:A 17.2 
*END

*D_NET *18 3.07548e-05
*CONN
*I *864:A I *D INVx1_ASAP7_75t_R
*I *1322:CON O *D FAx1_ASAP7_75t_R
*CAP
1 *864:A 0
2 *1322:CON 1.50024e-05
3 *18:10 1.50024e-05
4 *18:10 *1322:CI 7.35063e-07
5 *18:10 *504:8 0
6 *18:10 *564:10 1.49407e-08
*RES
1 *1322:CON *18:10 43.8888 
2 *18:10 *864:A 17.2 
*END

*D_NET *19 2.8917e-05
*CONN
*I *865:A I *D INVx1_ASAP7_75t_R
*I *1322:SN O *D FAx1_ASAP7_75t_R
*CAP
1 *865:A 0
2 *1322:SN 8.45066e-06
3 *19:10 8.45066e-06
4 *19:10 *1365:B 2.613e-06
5 *19:10 *504:8 9.40269e-06
*RES
1 *1322:SN *19:10 39.3835 
2 *19:10 *865:A 34.4 
*END

*D_NET *20 3.92305e-05
*CONN
*I *1000:A I *D INVx1_ASAP7_75t_R
*I *1323:CON O *D FAx1_ASAP7_75t_R
*CAP
1 *1000:A 0
2 *1323:CON 1.69884e-05
3 *20:10 1.69884e-05
4 *20:10 *470:10 0
5 *20:10 *481:10 5.22381e-06
6 *20:10 *503:8 0
7 *20:10 *697:85 2.98814e-08
8 *20:10 *850:8 0
*RES
1 *1323:CON *20:10 44.9585 
2 *20:10 *1000:A 17.2 
*END

*D_NET *21 5.43657e-05
*CONN
*I *1001:A I *D INVx1_ASAP7_75t_R
*I *1323:SN O *D FAx1_ASAP7_75t_R
*CAP
1 *1001:A 2.71829e-05
2 *1323:SN 2.71829e-05
*RES
1 *1323:SN *1001:A 44.5617 
*END

*D_NET *22 0.000169884
*CONN
*I *985:A I *D INVx1_ASAP7_75t_R
*I *1324:CON O *D FAx1_ASAP7_75t_R
*CAP
1 *985:A 1.83566e-05
2 *1324:CON 1.4648e-05
3 *22:14 5.44482e-05
4 *22:8 5.07397e-05
5 *985:A *702:48 7.86466e-06
6 *22:8 *1324:B 3.92018e-06
7 *22:8 *1368:B 8.33296e-06
8 *22:8 *23:10 1.15945e-06
9 *22:8 *408:10 0
10 *22:8 *442:8 5.37866e-07
11 *22:8 *701:35 0
12 *22:8 *714:80 1.64764e-06
13 *22:14 *453:8 6.7842e-07
14 *22:14 *701:35 3.95845e-06
15 *22:14 *714:78 3.59167e-06
*RES
1 *1324:CON *22:8 47.916 
2 *22:8 *22:14 33.9496 
3 *22:14 *985:A 43.492 
*END

*D_NET *23 2.8408e-05
*CONN
*I *986:A I *D INVx1_ASAP7_75t_R
*I *1324:SN O *D FAx1_ASAP7_75t_R
*CAP
1 *986:A 0
2 *1324:SN 1.16871e-05
3 *23:10 1.16871e-05
4 *23:10 *408:10 3.87439e-06
5 *22:8 *23:10 1.15945e-06
*RES
1 *1324:SN *23:10 40.4531 
2 *23:10 *986:A 34.4 
*END

*D_NET *24 0.000143164
*CONN
*I *952:A I *D INVx1_ASAP7_75t_R
*I *1325:CON O *D FAx1_ASAP7_75t_R
*CAP
1 *952:A 0
2 *1325:CON 6.41272e-06
3 *24:14 4.25944e-05
4 *24:8 4.90071e-05
5 *24:8 *25:8 1.64764e-06
6 *24:8 *441:8 0
7 *24:14 *965:B 1.00935e-05
8 *24:14 *1274:B 7.64042e-07
9 *24:14 *712:25 1.79557e-05
10 *24:14 *712:38 9.30479e-06
11 *24:14 *831:12 5.3846e-06
*RES
1 *1325:CON *24:8 38.9053 
2 *24:8 *24:14 42.3971 
3 *24:14 *952:A 34.4 
*END

*D_NET *25 0.00013761
*CONN
*I *953:A I *D INVx1_ASAP7_75t_R
*I *1325:SN O *D FAx1_ASAP7_75t_R
*CAP
1 *953:A 0
2 *1325:SN 0
3 *25:8 5.02079e-05
4 *25:6 5.02079e-05
5 *25:8 *419:10 8.57687e-06
6 *25:8 *430:8 7.24596e-06
7 *25:8 *441:8 1.07573e-06
8 *25:8 *696:49 9.15354e-08
9 *25:8 *696:55 1.30444e-05
10 *25:8 *703:78 0
11 *25:8 *704:86 2.95693e-06
12 *25:8 *711:37 1.46419e-06
13 *25:8 *712:46 0
14 *25:8 *815:20 1.09067e-06
15 *24:8 *25:8 1.64764e-06
*RES
1 *1325:SN *25:6 34.4 
2 *25:6 *25:8 42.8006 
3 *25:8 *953:A 34.4 
*END

*D_NET *26 0.000106095
*CONN
*I *946:A I *D INVx1_ASAP7_75t_R
*I *1326:CON O *D FAx1_ASAP7_75t_R
*CAP
1 *946:A 0
2 *1326:CON 2.45116e-05
3 *26:6 2.45116e-05
4 *26:6 *964:A 4.48222e-07
5 *26:6 *1326:A 0
6 *26:6 *1397:B 0
7 *26:6 *27:10 2.62506e-05
8 *26:6 *168:8 4.89331e-06
9 *26:6 *169:8 1.02072e-05
10 *26:6 *429:8 8.71771e-06
11 *26:6 *440:10 5.82269e-06
12 *26:6 *702:80 7.32095e-07
*RES
1 *1326:CON *26:6 41.9793 
2 *26:6 *946:A 34.4 
*END

*D_NET *27 0.000128489
*CONN
*I *947:A I *D INVx1_ASAP7_75t_R
*I *1326:SN O *D FAx1_ASAP7_75t_R
*CAP
1 *947:A 2.42416e-05
2 *1326:SN 1.30752e-05
3 *27:10 3.73168e-05
4 *947:A *950:A 2.03526e-06
5 *947:A *964:A 2.66797e-07
6 *947:A *964:B 1.66584e-05
7 *27:10 *964:A 5.79724e-07
8 *27:10 *1351:A 0
9 *27:10 *168:8 8.06436e-06
10 *26:6 *27:10 2.62506e-05
*RES
1 *1326:SN *27:10 45.0151 
2 *27:10 *947:A 44.5617 
*END

*D_NET *28 0.000299254
*CONN
*I *1256:A I *D INVx1_ASAP7_75t_R
*I *1327:CON O *D FAx1_ASAP7_75t_R
*CAP
1 *1256:A 0
2 *1327:CON 5.66759e-06
3 *28:30 1.50584e-05
4 *28:22 6.40555e-05
5 *28:14 5.46647e-05
6 *28:14 *711:64 1.23321e-06
7 *28:14 *715:18 0
8 *28:14 *832:10 4.93044e-07
9 *28:22 *43:36 0
10 *28:22 *78:20 0.000144859
11 *28:22 *78:30 5.44153e-06
12 *28:22 *527:22 1.54671e-06
13 *28:22 *701:70 0
14 *28:30 *78:30 4.29957e-06
15 *28:30 *711:85 0
16 *28:30 *715:42 1.93482e-06
*RES
1 *1327:CON *28:14 48.4677 
2 *28:14 *28:22 40.5907 
3 *28:22 *28:30 34.7974 
4 *28:30 *1256:A 34.4 
*END

*D_NET *29 0.000107656
*CONN
*I *1257:A I *D INVx1_ASAP7_75t_R
*I *1327:SN O *D FAx1_ASAP7_75t_R
*CAP
1 *1257:A 3.1911e-05
2 *1327:SN 1.26766e-05
3 *29:8 4.45876e-05
4 *1257:A *929:B 5.17782e-06
5 *1257:A *450:8 0
6 *29:8 *702:86 6.65157e-06
7 *29:8 *711:64 6.65157e-06
*RES
1 *1327:SN *29:8 46.2265 
2 *29:8 *1257:A 47.7706 
*END

*D_NET *30 6.67206e-05
*CONN
*I *1268:A I *D INVx1_ASAP7_75t_R
*I *1328:CON O *D FAx1_ASAP7_75t_R
*CAP
1 *1268:A 1.04291e-05
2 *1328:CON 1.34409e-05
3 *30:8 2.38701e-05
4 *1268:A *996:A 1.78333e-06
5 *30:8 *1353:CI 0
6 *30:8 *360:10 0
7 *30:8 *416:8 0
8 *30:8 *710:44 7.00626e-06
9 *30:8 *798:8 1.01908e-05
*RES
1 *1328:CON *30:8 47.3528 
2 *30:8 *1268:A 22.0134 
*END

*D_NET *31 5.549e-05
*CONN
*I *859:A I *D INVx1_ASAP7_75t_R
*I *1328:SN O *D FAx1_ASAP7_75t_R
*CAP
1 *859:A 2.37391e-05
2 *1328:SN 2.37391e-05
3 *859:A *1328:A 8.01183e-06
*RES
1 *1328:SN *859:A 45.6313 
*END

*D_NET *32 3.02781e-05
*CONN
*I *994:A I *D INVx1_ASAP7_75t_R
*I *1329:CON O *D FAx1_ASAP7_75t_R
*CAP
1 *994:A 0
2 *1329:CON 1.16453e-05
3 *32:10 1.16453e-05
4 *32:10 *1372:CI 1.02027e-06
5 *32:10 *829:10 5.28894e-06
6 *32:10 *829:14 6.7842e-07
*RES
1 *1329:CON *32:10 41.5795 
2 *32:10 *994:A 17.2 
*END

*D_NET *33 8.3441e-05
*CONN
*I *995:A I *D INVx1_ASAP7_75t_R
*I *1329:SN O *D FAx1_ASAP7_75t_R
*CAP
1 *995:A 1.36461e-05
2 *1329:SN 2.64799e-05
3 *33:10 4.0126e-05
4 *33:10 *1354:CI 0
5 *33:10 *699:104 3.18899e-06
*RES
1 *1329:SN *33:10 46.3645 
2 *33:10 *995:A 41.3527 
*END

*D_NET *34 0.000137762
*CONN
*I *1018:A I *D INVx1_ASAP7_75t_R
*I *1330:CON O *D FAx1_ASAP7_75t_R
*CAP
1 *1018:A 0
2 *1330:CON 2.59683e-05
3 *34:13 2.48533e-05
4 *34:9 5.08217e-05
5 *34:9 *809:55 1.12894e-06
6 *34:13 *1013:B 1.04475e-06
7 *34:13 *481:10 1.04475e-06
8 *34:13 *827:76 3.29001e-05
*RES
1 *1330:CON *34:9 34.1887 
2 *34:9 *34:13 35.9189 
3 *34:13 *1018:A 17.2 
*END

*D_NET *35 7.41482e-05
*CONN
*I *1019:A I *D INVx1_ASAP7_75t_R
*I *1330:SN O *D FAx1_ASAP7_75t_R
*CAP
1 *1019:A 3.22378e-05
2 *1330:SN 3.22378e-05
3 *1019:A *1330:A 9.67251e-06
*RES
1 *1330:SN *1019:A 48.8403 
*END

*D_NET *36 0.000214442
*CONN
*I *1296:A I *D INVx1_ASAP7_75t_R
*I *1331:CON O *D FAx1_ASAP7_75t_R
*CAP
1 *1296:A 0
2 *1331:CON 4.25745e-05
3 *36:13 3.57213e-05
4 *36:9 7.82958e-05
5 *36:9 *87:10 0
6 *36:9 *809:59 1.69499e-05
7 *36:13 *1037:A 4.09005e-05
*RES
1 *1331:CON *36:9 48.0978 
2 *36:9 *36:13 34.8492 
3 *36:13 *1296:A 17.2 
*END

*D_NET *37 7.27173e-05
*CONN
*I *1068:A I *D INVx1_ASAP7_75t_R
*I *1331:SN O *D FAx1_ASAP7_75t_R
*CAP
1 *1068:A 0
2 *1331:SN 0
3 *37:10 2.19196e-05
4 *37:6 2.19196e-05
5 *37:10 *1331:CI 0
6 *37:10 *1332:A 4.41094e-06
7 *37:10 *1356:A 1.32544e-05
8 *37:10 *1356:CI 3.75971e-06
9 *37:10 *357:18 4.63616e-06
10 *37:10 *812:63 1.23321e-06
11 *37:10 *836:52 1.5837e-06
12 *37:10 *836:60 0
*RES
1 *1331:SN *37:6 34.4 
2 *37:6 *37:10 37.474 
3 *37:10 *1068:A 17.2 
*END

*D_NET *38 7.46023e-05
*CONN
*I *1307:A I *D INVx1_ASAP7_75t_R
*I *1332:CON O *D FAx1_ASAP7_75t_R
*CAP
1 *1307:A 0
2 *1332:CON 2.84917e-05
3 *38:16 5.68094e-06
4 *38:10 3.41726e-05
5 *38:10 *1332:A 5.67735e-06
6 *38:10 *87:10 0
7 *38:10 *698:90 0
8 *38:16 *1416:B 0
9 *38:16 *87:10 5.79724e-07
*RES
1 *1332:CON *38:10 47.9974 
2 *38:10 *38:16 37.779 
3 *38:16 *1307:A 17.2 
*END

*D_NET *39 0.00012879
*CONN
*I *1077:A I *D INVx1_ASAP7_75t_R
*I *1332:SN O *D FAx1_ASAP7_75t_R
*CAP
1 *1077:A 2.48115e-06
2 *1332:SN 3.68543e-06
3 *39:14 3.26931e-05
4 *39:8 3.38974e-05
5 *1077:A *804:29 9.81516e-06
6 *1077:A *816:53 4.10928e-06
7 *39:8 *1332:A 5.79724e-07
8 *39:8 *423:10 9.81516e-06
9 *39:14 *423:10 2.66207e-05
10 *39:14 *814:8 5.09299e-06
*RES
1 *1332:SN *39:8 37.779 
2 *39:8 *39:14 48.8403 
3 *39:14 *1077:A 37.779 
*END

*D_NET *40 0.000234929
*CONN
*I *921:A I *D INVx1_ASAP7_75t_R
*I *1333:CON O *D FAx1_ASAP7_75t_R
*CAP
1 *921:A 2.12966e-05
2 *1333:CON 3.28745e-05
3 *40:14 3.75028e-05
4 *40:6 4.90807e-05
5 *921:A *1282:A 3.68287e-06
6 *921:A *386:6 9.75735e-06
7 *40:6 *1333:CI 5.38715e-05
8 *40:6 *41:10 1.6053e-05
9 *40:6 *696:23 6.13555e-06
10 *40:6 *696:35 1.23321e-06
11 *40:14 *41:10 5.52807e-07
12 *40:14 *808:12 2.88806e-06
*RES
1 *1333:CON *40:6 49.3005 
2 *40:6 *40:14 44.1686 
3 *40:14 *921:A 48.8403 
*END

*D_NET *41 0.00024297
*CONN
*I *1309:A I *D INVx1_ASAP7_75t_R
*I *1333:SN O *D FAx1_ASAP7_75t_R
*CAP
1 *1309:A 2.77109e-05
2 *1333:SN 7.66443e-06
3 *41:10 7.66076e-05
4 *41:8 5.65611e-05
5 *1309:A *395:8 0
6 *41:10 *1273:B 1.40354e-06
7 *41:10 *1333:CI 5.20058e-05
8 *41:10 *709:44 0
9 *41:10 *808:12 4.41094e-06
10 *40:6 *41:10 1.6053e-05
11 *40:14 *41:10 5.52807e-07
*RES
1 *1333:SN *41:8 37.0741 
2 *41:8 *41:10 45.6164 
3 *41:10 *1309:A 46.701 
*END

*D_NET *42 0.000466714
*CONN
*I *860:A I *D INVx1_ASAP7_75t_R
*I *1334:CON O *D FAx1_ASAP7_75t_R
*CAP
1 *860:A 0
2 *1334:CON 1.23276e-05
3 *42:40 8.66942e-06
4 *42:28 5.83381e-05
5 *42:20 5.84779e-05
6 *42:10 2.11368e-05
7 *42:10 *1239:B 0
8 *42:10 *1334:B 3.88306e-06
9 *42:10 *372:8 5.23062e-06
10 *42:10 *706:61 0
11 *42:10 *710:101 0
12 *42:20 *704:40 0
13 *42:20 *704:67 2.93124e-06
14 *42:20 *706:38 0
15 *42:28 *43:26 0
16 *42:28 *706:26 0.000205747
17 *42:28 *708:26 2.93818e-05
18 *42:28 *789:24 5.90669e-05
19 *42:40 *361:8 7.84772e-07
20 *42:40 *832:10 7.3874e-07
*RES
1 *1334:CON *42:10 40.8776 
2 *42:10 *42:20 34.2226 
3 *42:20 *42:28 49.0393 
4 *42:28 *42:40 48.981 
5 *42:40 *860:A 17.2 
*END

*D_NET *43 0.000519966
*CONN
*I *861:A I *D INVx1_ASAP7_75t_R
*I *1334:SN O *D FAx1_ASAP7_75t_R
*CAP
1 *861:A 0
2 *1334:SN 1.24175e-06
3 *43:40 1.91535e-05
4 *43:36 5.68342e-05
5 *43:26 0.000117479
6 *43:20 8.90514e-05
7 *43:8 1.04947e-05
8 *43:8 *372:8 1.37303e-06
9 *43:8 *710:101 3.58577e-07
10 *43:20 *704:67 0
11 *43:26 *371:24 0.000213807
12 *43:36 *113:20 2.70566e-07
13 *43:36 *417:20 4.23087e-07
14 *43:36 *527:22 0
15 *43:36 *701:70 5.88662e-06
16 *43:40 *1369:CI 3.25592e-06
17 *43:40 *78:30 0
18 *43:40 *112:8 0
19 *43:40 *516:8 0
20 *43:40 *517:8 3.36331e-07
21 *43:40 *528:16 0
22 *28:22 *43:36 0
23 *42:28 *43:26 0
*RES
1 *1334:SN *43:8 35.8079 
2 *43:8 *43:20 43.2759 
3 *43:20 *43:26 47.2234 
4 *43:26 *43:36 36.7729 
5 *43:36 *43:40 33.2502 
6 *43:40 *861:A 34.4 
*END

*D_NET *44 0.000102401
*CONN
*I *996:A I *D INVx1_ASAP7_75t_R
*I *1335:CON O *D FAx1_ASAP7_75t_R
*CAP
1 *996:A 2.45773e-05
2 *1335:CON 2.45773e-05
3 *996:A *45:8 5.14634e-05
4 *1268:A *996:A 1.78333e-06
*RES
1 *1335:CON *996:A 35.1166 
*END

*D_NET *45 0.000128227
*CONN
*I *1295:A I *D INVx1_ASAP7_75t_R
*I *1335:SN O *D FAx1_ASAP7_75t_R
*CAP
1 *1295:A 5.47192e-06
2 *1335:SN 3.291e-05
3 *45:8 3.83819e-05
4 *996:A *45:8 5.14634e-05
*RES
1 *1335:SN *45:8 48.8403 
2 *45:8 *1295:A 37.779 
*END

*D_NET *46 2.85526e-05
*CONN
*I *1020:A I *D INVx1_ASAP7_75t_R
*I *1336:CON O *D FAx1_ASAP7_75t_R
*CAP
1 *1020:A 1.39604e-05
2 *1336:CON 1.39604e-05
3 *1020:A *47:8 6.31888e-07
*RES
1 *1336:CON *1020:A 25.4898 
*END

*D_NET *47 0.000101326
*CONN
*I *1021:A I *D INVx1_ASAP7_75t_R
*I *1336:SN O *D FAx1_ASAP7_75t_R
*CAP
1 *1021:A 0
2 *1336:SN 6.28359e-06
3 *47:14 2.56327e-05
4 *47:8 3.19163e-05
5 *47:14 *1337:CI 4.03399e-07
6 *47:14 *1338:A 1.73899e-05
7 *47:14 *392:8 0
8 *47:14 *799:22 1.73899e-05
9 *47:14 *799:28 1.67815e-06
10 *1020:A *47:8 6.31888e-07
*RES
1 *1336:SN *47:8 37.0741 
2 *47:8 *47:14 43.5801 
3 *47:14 *1021:A 17.2 
*END

*D_NET *48 4.48423e-05
*CONN
*I *1069:A I *D INVx1_ASAP7_75t_R
*I *1337:CON O *D FAx1_ASAP7_75t_R
*CAP
1 *1069:A 2.19788e-05
2 *1337:CON 2.19788e-05
3 *1069:A *49:10 8.84642e-07
*RES
1 *1337:CON *1069:A 29.7684 
*END

*D_NET *49 7.27709e-05
*CONN
*I *1070:A I *D INVx1_ASAP7_75t_R
*I *1337:SN O *D FAx1_ASAP7_75t_R
*CAP
1 *1070:A 1.03367e-05
2 *1337:SN 2.33997e-05
3 *49:10 3.37364e-05
4 *1070:A *368:6 2.61188e-06
5 *49:10 *1337:CI 0
6 *49:10 *391:8 1.12894e-06
7 *49:10 *798:71 6.72662e-07
8 *49:10 *802:8 0
9 *49:10 *817:46 0
10 *1069:A *49:10 8.84642e-07
*RES
1 *1337:SN *49:10 47.1544 
2 *49:10 *1070:A 39.2134 
*END

*D_NET *50 0.000174968
*CONN
*I *1078:A I *D INVx1_ASAP7_75t_R
*I *1338:CON O *D FAx1_ASAP7_75t_R
*CAP
1 *1078:A 3.51132e-06
2 *1338:CON 0
3 *50:6 3.41295e-05
4 *50:4 3.06182e-05
5 *1078:A *1180:A 2.12481e-06
6 *50:6 *1338:B 6.77588e-05
7 *50:6 *368:10 4.34775e-06
8 *50:6 *403:10 1.12894e-06
9 *50:6 *799:50 1.5862e-06
10 *50:6 *802:21 0
11 *50:6 *812:38 2.37953e-05
12 *50:6 *813:29 5.9673e-06
*RES
1 *1338:CON *50:4 17.2 
2 *50:4 *50:6 33.2268 
3 *50:6 *1078:A 36.0045 
*END

*D_NET *51 0.000297071
*CONN
*I *1079:A I *D INVx1_ASAP7_75t_R
*I *1338:SN O *D FAx1_ASAP7_75t_R
*CAP
1 *1079:A 7.48584e-06
2 *1338:SN 6.758e-06
3 *51:38 2.2094e-05
4 *51:28 9.64763e-05
5 *51:20 9.22829e-05
6 *51:8 1.71728e-05
7 *1079:A *1339:B 6.74764e-06
8 *1079:A *1339:CI 0
9 *1079:A *53:10 4.10928e-06
10 *1079:A *389:8 0
11 *51:8 *84:10 0
12 *51:8 *368:10 2.56601e-05
13 *51:8 *403:18 5.04414e-06
14 *51:20 *85:22 0
15 *51:20 *697:28 0
16 *51:28 *85:30 0
17 *51:28 *817:70 0
18 *51:28 *835:28 1.32396e-05
19 *51:38 *401:18 0
20 *51:38 *827:18 0
21 *51:38 *848:27 0
*RES
1 *1338:SN *51:8 42.9414 
2 *51:8 *51:20 43.1338 
3 *51:20 *51:28 38.8444 
4 *51:28 *51:38 46.387 
5 *51:38 *1079:A 41.815 
*END

*D_NET *52 3.78118e-05
*CONN
*I *1082:A I *D INVx1_ASAP7_75t_R
*I *1339:CON O *D FAx1_ASAP7_75t_R
*CAP
1 *1082:A 1.87725e-05
2 *1339:CON 1.87725e-05
3 *1082:A *53:10 2.66797e-07
*RES
1 *1339:CON *1082:A 28.1639 
*END

*D_NET *53 7.34803e-05
*CONN
*I *1083:A I *D INVx1_ASAP7_75t_R
*I *1339:SN O *D FAx1_ASAP7_75t_R
*CAP
1 *1083:A 0
2 *1339:SN 1.76922e-05
3 *53:18 1.686e-05
4 *53:10 3.45521e-05
5 *53:18 *401:10 0
6 *53:18 *401:18 0
7 *53:18 *817:88 0
8 *1079:A *53:10 4.10928e-06
9 *1082:A *53:10 2.66797e-07
*RES
1 *1339:SN *53:10 43.7754 
2 *53:10 *53:18 43.8321 
3 *53:18 *1083:A 34.4 
*END

*D_NET *54 4.37465e-05
*CONN
*I *1084:A I *D INVx1_ASAP7_75t_R
*I *1340:CON O *D FAx1_ASAP7_75t_R
*CAP
1 *1084:A 0
2 *1340:CON 1.96491e-05
3 *54:10 1.96491e-05
4 *54:10 *1340:CI 0
5 *54:10 *1358:A 0
6 *54:10 *55:10 1.12894e-06
7 *54:10 *91:16 2.6409e-06
8 *54:10 *388:10 0
9 *54:10 *399:10 6.7842e-07
10 *54:10 *421:16 0
11 *54:10 *816:63 0
*RES
1 *1340:CON *54:10 48.2808 
2 *54:10 *1084:A 17.2 
*END

*D_NET *55 1.97342e-05
*CONN
*I *1085:A I *D INVx1_ASAP7_75t_R
*I *1340:SN O *D FAx1_ASAP7_75t_R
*CAP
1 *1085:A 0
2 *1340:SN 9.30262e-06
3 *55:10 9.30262e-06
4 *54:10 *55:10 1.12894e-06
*RES
1 *1340:SN *55:10 39.3835 
2 *55:10 *1085:A 34.4 
*END

*D_NET *56 1.38604e-05
*CONN
*I *899:A I *D INVx1_ASAP7_75t_R
*I *1341:CON O *D FAx1_ASAP7_75t_R
*CAP
1 *899:A 0
2 *1341:CON 6.38484e-06
3 *56:8 6.38484e-06
4 *56:8 *1341:B 1.09067e-06
*RES
1 *1341:CON *56:8 38.9053 
2 *56:8 *899:A 17.2 
*END

*D_NET *57 9.21065e-05
*CONN
*I *900:A I *D INVx1_ASAP7_75t_R
*I *1341:SN O *D FAx1_ASAP7_75t_R
*CAP
1 *900:A 1.9405e-05
2 *1341:SN 2.31057e-05
3 *57:10 4.25108e-05
4 *900:A *398:10 2.34246e-06
5 *57:10 *202:8 4.74248e-06
6 *57:10 *751:8 0
*RES
1 *1341:SN *57:10 46.3645 
2 *57:10 *900:A 44.5617 
*END

*D_NET *58 0.000108113
*CONN
*I *1298:A I *D INVx1_ASAP7_75t_R
*I *1342:CON O *D FAx1_ASAP7_75t_R
*CAP
1 *1298:A 2.73167e-06
2 *1342:CON 4.97907e-05
3 *58:9 5.25224e-05
4 *1298:A *1103:A 2.30405e-06
5 *58:9 *248:8 7.64042e-07
*RES
1 *1342:CON *58:9 46.8581 
2 *58:9 *1298:A 36.0045 
*END

*D_NET *59 1.98538e-05
*CONN
*I *1105:A I *D INVx1_ASAP7_75t_R
*I *1342:SN O *D FAx1_ASAP7_75t_R
*CAP
1 *1105:A 3.92035e-06
2 *1342:SN 3.6597e-06
3 *59:8 7.58005e-06
4 *1105:A *559:12 5.82745e-07
5 *59:8 *1009:A 4.11092e-06
*RES
1 *1342:SN *59:8 37.779 
2 *59:8 *1105:A 36.0045 
*END

*D_NET *60 2.83275e-05
*CONN
*I *1163:A I *D INVx1_ASAP7_75t_R
*I *1343:CON O *D FAx1_ASAP7_75t_R
*CAP
1 *1163:A 1.41638e-05
2 *1343:CON 1.41638e-05
*RES
1 *1343:CON *1163:A 24.955 
*END

*D_NET *61 3.89508e-05
*CONN
*I *1164:A I *D INVx1_ASAP7_75t_R
*I *1343:SN O *D FAx1_ASAP7_75t_R
*CAP
1 *1164:A 5.92161e-06
2 *1343:SN 1.78228e-06
3 *61:8 7.7039e-06
4 *1164:A *608:10 3.65131e-06
5 *61:8 *558:16 9.94583e-06
6 *61:8 *608:10 9.94583e-06
*RES
1 *1343:SN *61:8 37.779 
2 *61:8 *1164:A 37.0741 
*END

*D_NET *62 7.70678e-05
*CONN
*I *1301:A I *D INVx1_ASAP7_75t_R
*I *1344:CON O *D FAx1_ASAP7_75t_R
*CAP
1 *1301:A 3.14225e-05
2 *1344:CON 6.70797e-06
3 *62:8 3.81305e-05
4 *62:8 *1344:B 0
5 *62:8 *1387:CI 8.06799e-07
6 *62:8 *63:8 0
*RES
1 *1344:CON *62:8 38.9053 
2 *62:8 *1301:A 31.6403 
*END

*D_NET *63 1.12804e-05
*CONN
*I *1132:A I *D INVx1_ASAP7_75t_R
*I *1344:SN O *D FAx1_ASAP7_75t_R
*CAP
1 *1132:A 0
2 *1344:SN 5.24819e-06
3 *63:8 5.24819e-06
4 *63:8 *1344:B 0
5 *63:8 *247:8 7.84037e-07
6 *62:8 *63:8 0
*RES
1 *1344:SN *63:8 37.779 
2 *63:8 *1132:A 34.4 
*END

*D_NET *64 8.34881e-05
*CONN
*I *977:A I *D INVx1_ASAP7_75t_R
*I *1345:CON O *D FAx1_ASAP7_75t_R
*CAP
1 *977:A 0
2 *1345:CON 3.71375e-05
3 *64:9 3.71375e-05
4 *64:9 *1134:A 7.63254e-07
5 *64:9 *1388:B 2.1664e-06
6 *64:9 *582:8 2.77657e-06
7 *64:9 *628:10 3.50698e-06
*RES
1 *1345:CON *64:9 40.0471 
2 *64:9 *977:A 34.4 
*END

*D_NET *65 2.20434e-05
*CONN
*I *978:A I *D INVx1_ASAP7_75t_R
*I *1345:SN O *D FAx1_ASAP7_75t_R
*CAP
1 *978:A 4.33339e-06
2 *1345:SN 4.49049e-06
3 *65:8 8.82387e-06
4 *978:A *216:10 2.86376e-07
5 *65:8 *1345:A 4.10928e-06
*RES
1 *1345:SN *65:8 37.779 
2 *65:8 *978:A 36.0045 
*END

*D_NET *66 6.61636e-05
*CONN
*I *906:A I *D INVx1_ASAP7_75t_R
*I *1346:CON O *D FAx1_ASAP7_75t_R
*CAP
1 *906:A 0
2 *1346:CON 8.04589e-06
3 *66:14 2.32427e-05
4 *66:8 3.12886e-05
5 *66:8 *616:10 0
6 *66:8 *833:8 1.4374e-06
7 *66:14 *153:10 5.52807e-07
8 *66:14 *593:16 1.04475e-06
9 *66:14 *594:14 0
10 *66:14 *604:14 5.51397e-07
11 *66:14 *833:8 0
*RES
1 *1346:CON *66:8 41.158 
2 *66:8 *66:14 32.9933 
3 *66:14 *906:A 34.4 
*END

*D_NET *67 9.864e-06
*CONN
*I *907:A I *D INVx1_ASAP7_75t_R
*I *1346:SN O *D FAx1_ASAP7_75t_R
*CAP
1 *907:A 0
2 *1346:SN 3.94392e-06
3 *67:8 3.94392e-06
4 *67:8 *605:8 1.97616e-06
*RES
1 *1346:SN *67:8 37.779 
2 *67:8 *907:A 34.4 
*END

*D_NET *68 6.74216e-05
*CONN
*I *910:A I *D INVx1_ASAP7_75t_R
*I *1347:CON O *D FAx1_ASAP7_75t_R
*CAP
1 *910:A 0
2 *1347:CON 2.50311e-05
3 *68:10 2.50311e-05
4 *68:10 *1347:CI 1.50026e-06
5 *68:10 *69:8 9.38684e-06
6 *68:10 *540:32 0
7 *68:10 *626:24 6.47236e-06
*RES
1 *1347:CON *68:10 46.9277 
2 *68:10 *910:A 17.2 
*END

*D_NET *69 8.62062e-05
*CONN
*I *911:A I *D INVx1_ASAP7_75t_R
*I *1347:SN O *D FAx1_ASAP7_75t_R
*CAP
1 *911:A 9.26919e-06
2 *1347:SN 5.72838e-06
3 *69:8 1.49976e-05
4 *911:A *626:10 1.45042e-05
5 *911:A *626:24 2.03526e-06
6 *69:8 *1347:CI 2.27181e-05
7 *69:8 *540:32 0
8 *69:8 *626:18 7.56661e-06
9 *68:10 *69:8 9.38684e-06
*RES
1 *1347:SN *69:8 42.2843 
2 *69:8 *911:A 40.2831 
*END

*D_NET *70 3.15667e-05
*CONN
*I *1311:A I *D INVx1_ASAP7_75t_R
*I *1348:CON O *D FAx1_ASAP7_75t_R
*CAP
1 *1311:A 1.57833e-05
2 *1348:CON 1.57833e-05
*RES
1 *1348:CON *1311:A 25.4898 
*END

*D_NET *71 0.00014394
*CONN
*I *1219:A I *D INVx1_ASAP7_75t_R
*I *1348:SN O *D FAx1_ASAP7_75t_R
*CAP
1 *1219:A 0
2 *1348:SN 5.41542e-05
3 *71:6 5.41542e-05
4 *71:6 *565:6 3.81627e-06
5 *71:6 *625:8 3.18154e-05
*RES
1 *1348:SN *71:6 42.3368 
2 *71:6 *1219:A 17.2 
*END

*D_NET *72 3.15338e-05
*CONN
*I *1221:A I *D INVx1_ASAP7_75t_R
*I *1349:CON O *D FAx1_ASAP7_75t_R
*CAP
1 *1221:A 1.57669e-05
2 *1349:CON 1.57669e-05
*RES
1 *1349:CON *1221:A 25.4898 
*END

*D_NET *73 6.39346e-05
*CONN
*I *1313:A I *D INVx1_ASAP7_75t_R
*I *1349:SN O *D FAx1_ASAP7_75t_R
*CAP
1 *1313:A 2.00118e-05
2 *1349:SN 4.46156e-06
3 *73:8 2.44734e-05
4 *1313:A *770:14 1.09269e-05
5 *73:8 *602:8 2.98814e-07
6 *73:8 *833:60 3.76218e-06
*RES
1 *1349:SN *73:8 37.779 
2 *73:8 *1313:A 42.4224 
*END

*D_NET *74 9.76483e-05
*CONN
*I *1029:A I *D INVx1_ASAP7_75t_R
*I *1350:CON O *D FAx1_ASAP7_75t_R
*CAP
1 *1029:A 3.95247e-05
2 *1350:CON 6.37793e-06
3 *74:8 4.59026e-05
4 *1029:A *576:8 3.73144e-06
5 *74:8 *969:B 2.1117e-06
*RES
1 *1350:CON *74:8 38.9053 
2 *74:8 *1029:A 31.6403 
*END

*D_NET *75 0.000109436
*CONN
*I *1304:A I *D INVx1_ASAP7_75t_R
*I *1350:SN O *D FAx1_ASAP7_75t_R
*CAP
1 *1304:A 1.90265e-05
2 *1350:SN 2.62177e-05
3 *75:8 4.52441e-05
4 *1304:A *576:8 6.86929e-06
5 *1304:A *577:14 8.51183e-06
6 *1304:A *612:8 0
7 *1304:A *623:10 0
8 *75:8 *577:14 3.56648e-06
*RES
1 *1350:SN *75:8 44.5617 
2 *75:8 *1304:A 48.2241 
*END

*D_NET *76 0.000135508
*CONN
*I *919:A I *D INVx1_ASAP7_75t_R
*I *1351:CON O *D FAx1_ASAP7_75t_R
*CAP
1 *919:A 3.62481e-05
2 *1351:CON 5.27269e-06
3 *76:8 4.15208e-05
4 *919:A *951:A 0
5 *919:A *528:12 8.23084e-06
6 *76:8 *77:14 1.33669e-05
7 *76:8 *712:63 3.08683e-05
*RES
1 *1351:CON *76:8 44.537 
2 *76:8 *919:A 32.7099 
*END

*D_NET *77 0.00010589
*CONN
*I *920:A I *D INVx1_ASAP7_75t_R
*I *1351:SN O *D FAx1_ASAP7_75t_R
*CAP
1 *920:A 0
2 *1351:SN 9.78357e-06
3 *77:14 2.68694e-05
4 *77:8 3.6653e-05
5 *77:14 *1351:A 4.84588e-06
6 *77:14 *702:80 9.94685e-06
7 *77:14 *702:82 0
8 *77:14 *712:63 4.42421e-06
9 *76:8 *77:14 1.33669e-05
*RES
1 *1351:SN *77:8 38.1438 
2 *77:8 *77:14 39.4716 
3 *77:14 *920:A 17.2 
*END

*D_NET *78 0.000354564
*CONN
*I *1254:A I *D INVx1_ASAP7_75t_R
*I *1352:CON O *D FAx1_ASAP7_75t_R
*CAP
1 *1254:A 0
2 *1352:CON 7.79534e-06
3 *78:30 1.31229e-05
4 *78:20 7.16894e-05
5 *78:14 6.63619e-05
6 *78:20 *113:32 5.71626e-06
7 *78:20 *701:70 0
8 *78:20 *709:24 0
9 *78:20 *710:66 8.68161e-06
10 *78:20 *715:20 2.53636e-05
11 *78:30 *516:8 1.23321e-06
12 *28:22 *78:20 0.000144859
13 *28:22 *78:30 5.44153e-06
14 *28:30 *78:30 4.29957e-06
15 *43:40 *78:30 0
*RES
1 *1352:CON *78:14 49.5512 
2 *78:14 *78:20 45.6484 
3 *78:20 *78:30 35.3266 
4 *78:30 *1254:A 34.4 
*END

*D_NET *79 0.000117971
*CONN
*I *1255:A I *D INVx1_ASAP7_75t_R
*I *1352:SN O *D FAx1_ASAP7_75t_R
*CAP
1 *1255:A 0
2 *1352:SN 4.19398e-06
3 *79:12 5.34013e-05
4 *79:8 5.75953e-05
5 *79:8 *1352:A 2.22736e-06
6 *79:8 *1352:CI 5.52807e-07
*RES
1 *1352:SN *79:8 37.779 
2 *79:8 *79:12 38.0582 
3 *79:12 *1255:A 17.2 
*END

*D_NET *80 2.93505e-05
*CONN
*I *1267:A I *D INVx1_ASAP7_75t_R
*I *1353:CON O *D FAx1_ASAP7_75t_R
*CAP
1 *1267:A 1.46753e-05
2 *1353:CON 1.46753e-05
*RES
1 *1353:CON *1267:A 25.4898 
*END

*D_NET *81 4.98654e-05
*CONN
*I *1306:A I *D INVx1_ASAP7_75t_R
*I *1353:SN O *D FAx1_ASAP7_75t_R
*CAP
1 *1306:A 4.26163e-06
2 *1353:SN 1.12824e-05
3 *81:8 1.5544e-05
4 *1306:A *426:14 3.06518e-07
5 *81:8 *1602:A 4.14536e-06
6 *81:8 *799:8 1.43255e-05
7 *81:8 *813:18 0
*RES
1 *1353:SN *81:8 46.2265 
2 *81:8 *1306:A 36.0045 
*END

*D_NET *82 3.72478e-05
*CONN
*I *992:A I *D INVx1_ASAP7_75t_R
*I *1354:CON O *D FAx1_ASAP7_75t_R
*CAP
1 *992:A 1.27277e-05
2 *1354:CON 1.27277e-05
3 *992:A *83:8 1.17924e-05
*RES
1 *1354:CON *992:A 25.4898 
*END

*D_NET *83 0.000117621
*CONN
*I *993:A I *D INVx1_ASAP7_75t_R
*I *1354:SN O *D FAx1_ASAP7_75t_R
*CAP
1 *993:A 0
2 *1354:SN 9.61256e-06
3 *83:14 3.44825e-05
4 *83:8 4.40951e-05
5 *83:14 *84:18 3.81627e-06
6 *83:14 *459:8 2.77657e-06
7 *83:14 *812:21 1.10453e-05
8 *992:A *83:8 1.17924e-05
*RES
1 *1354:SN *83:8 39.2134 
2 *83:8 *83:14 41.6109 
3 *83:14 *993:A 17.2 
*END

*D_NET *84 0.000107077
*CONN
*I *1016:A I *D INVx1_ASAP7_75t_R
*I *1355:CON O *D FAx1_ASAP7_75t_R
*CAP
1 *1016:A 0
2 *1355:CON 2.00127e-05
3 *84:18 1.69169e-05
4 *84:10 3.69296e-05
5 *84:10 *85:10 0
6 *84:10 *403:18 0
7 *84:10 *458:8 8.71771e-06
8 *84:10 *812:21 2.83874e-07
9 *84:18 *524:8 0
10 *84:18 *536:8 0
11 *84:18 *812:21 2.03998e-05
12 *51:8 *84:10 0
13 *83:14 *84:18 3.81627e-06
*RES
1 *1355:CON *84:10 45.3516 
2 *84:10 *84:18 48.6455 
3 *84:18 *1016:A 17.2 
*END

*D_NET *85 0.000344689
*CONN
*I *1017:A I *D INVx1_ASAP7_75t_R
*I *1355:SN O *D FAx1_ASAP7_75t_R
*CAP
1 *1017:A 0
2 *1355:SN 8.66806e-06
3 *85:44 5.84981e-07
4 *85:38 2.39393e-05
5 *85:30 0.000120277
6 *85:22 0.000104792
7 *85:10 1.65372e-05
8 *85:10 *458:8 2.95693e-06
9 *85:22 *697:28 0
10 *85:30 *695:32 0
11 *85:30 *698:82 2.52958e-07
12 *85:30 *835:22 4.93954e-05
13 *85:30 *854:59 0
14 *85:38 *835:16 5.39693e-06
15 *85:38 *835:126 7.48374e-06
16 *85:38 *836:21 0
17 *85:38 *836:25 0
18 *85:44 *1374:A 3.09718e-06
19 *85:44 *827:70 1.30746e-06
20 *51:20 *85:22 0
21 *51:28 *85:30 0
22 *84:10 *85:10 0
*RES
1 *1355:SN *85:10 38.1066 
2 *85:10 *85:22 42.5504 
3 *85:22 *85:30 44.6588 
4 *85:30 *85:38 32.9746 
5 *85:38 *85:44 35.4325 
6 *85:44 *1017:A 17.2 
*END

*D_NET *86 8.65546e-05
*CONN
*I *1037:A I *D INVx1_ASAP7_75t_R
*I *1356:CON O *D FAx1_ASAP7_75t_R
*CAP
1 *1037:A 2.2827e-05
2 *1356:CON 2.2827e-05
3 *36:13 *1037:A 4.09005e-05
*RES
1 *1356:CON *1037:A 34.5818 
*END

*D_NET *87 7.80532e-05
*CONN
*I *1038:A I *D INVx1_ASAP7_75t_R
*I *1356:SN O *D FAx1_ASAP7_75t_R
*CAP
1 *1038:A 0
2 *1356:SN 0
3 *87:10 3.87367e-05
4 *87:6 3.87367e-05
5 *87:10 *1332:A 0
6 *87:10 *1356:CI 0
7 *87:10 *1416:B 0
8 *87:10 *534:10 0
9 *87:10 *809:59 0
10 *87:10 *827:10 0
11 *36:9 *87:10 0
12 *38:10 *87:10 0
13 *38:16 *87:10 5.79724e-07
*RES
1 *1356:SN *87:6 34.4 
2 *87:6 *87:10 45.9215 
3 *87:10 *1038:A 17.2 
*END

*D_NET *88 0.000126985
*CONN
*I *1075:A I *D INVx1_ASAP7_75t_R
*I *1357:CON O *D FAx1_ASAP7_75t_R
*CAP
1 *1075:A 3.27944e-05
2 *1357:CON 3.27944e-05
3 *1075:A *887:A 5.01287e-06
4 *1075:A *887:B 1.02506e-06
5 *1075:A *89:6 5.40949e-05
6 *1075:A *534:10 1.26378e-06
*RES
1 *1357:CON *1075:A 44.2087 
*END

*D_NET *89 0.000144575
*CONN
*I *1076:A I *D INVx1_ASAP7_75t_R
*I *1357:SN O *D FAx1_ASAP7_75t_R
*CAP
1 *1076:A 0
2 *1357:SN 3.92694e-05
3 *89:12 5.68094e-06
4 *89:6 4.49504e-05
5 *89:12 *433:12 5.79724e-07
6 *1075:A *89:6 5.40949e-05
*RES
1 *1357:SN *89:6 36.9885 
2 *89:6 *89:12 37.779 
3 *89:12 *1076:A 17.2 
*END

*D_NET *90 0.000118281
*CONN
*I *1080:A I *D INVx1_ASAP7_75t_R
*I *1358:CON O *D FAx1_ASAP7_75t_R
*CAP
1 *1080:A 3.58292e-06
2 *1358:CON 5.74675e-06
3 *90:14 4.55771e-05
4 *90:8 4.77409e-05
5 *1080:A *1100:A 4.41457e-06
6 *1080:A *455:10 2.12481e-06
7 *90:8 *91:10 3.61841e-06
8 *90:8 *355:10 5.37866e-07
9 *90:14 *197:10 5.52807e-07
10 *90:14 *433:12 7.58265e-07
11 *90:14 *455:10 3.6269e-06
*RES
1 *1358:CON *90:8 38.9053 
2 *90:8 *90:14 37.2719 
3 *90:14 *1080:A 37.609 
*END

*D_NET *91 0.000112721
*CONN
*I *1081:A I *D INVx1_ASAP7_75t_R
*I *1358:SN O *D FAx1_ASAP7_75t_R
*CAP
1 *1081:A 5.59105e-06
2 *1358:SN 7.68862e-06
3 *91:16 3.48713e-05
4 *91:10 3.69688e-05
5 *1081:A *1358:A 0
6 *1081:A *92:10 0
7 *91:10 *355:10 3.77762e-06
8 *91:16 *1192:A 2.90209e-08
9 *91:16 *355:10 1.23408e-05
10 *91:16 *399:10 5.19475e-06
11 *54:10 *91:16 2.6409e-06
12 *90:8 *91:10 3.61841e-06
*RES
1 *1358:SN *91:10 39.3835 
2 *91:10 *91:16 47.7706 
3 *91:16 *1081:A 37.779 
*END

*D_NET *92 3.51894e-05
*CONN
*I *897:A I *D INVx1_ASAP7_75t_R
*I *1359:CON O *D FAx1_ASAP7_75t_R
*CAP
1 *897:A 0
2 *1359:CON 1.74603e-05
3 *92:10 1.74603e-05
4 *92:10 *93:8 0
5 *92:10 *399:10 2.68933e-07
6 *1081:A *92:10 0
*RES
1 *1359:CON *92:10 43.7188 
2 *92:10 *897:A 17.2 
*END

*D_NET *93 1.05678e-05
*CONN
*I *898:A I *D INVx1_ASAP7_75t_R
*I *1359:SN O *D FAx1_ASAP7_75t_R
*CAP
1 *898:A 0
2 *1359:SN 5.28392e-06
3 *93:8 5.28392e-06
4 *92:10 *93:8 0
*RES
1 *1359:SN *93:8 37.779 
2 *93:8 *898:A 34.4 
*END

*D_NET *94 4.44971e-05
*CONN
*I *1135:A I *D INVx1_ASAP7_75t_R
*I *1360:CON O *D FAx1_ASAP7_75t_R
*CAP
1 *1135:A 2.22486e-05
2 *1360:CON 2.22486e-05
*RES
1 *1360:CON *1135:A 28.6987 
*END

*D_NET *95 3.58752e-05
*CONN
*I *1136:A I *D INVx1_ASAP7_75t_R
*I *1360:SN O *D FAx1_ASAP7_75t_R
*CAP
1 *1136:A 8.70115e-06
2 *1360:SN 4.16643e-06
3 *95:8 1.28676e-05
4 *1136:A *707:26 5.8714e-06
5 *95:8 *707:20 0
6 *6:9 *95:8 4.26863e-06
*RES
1 *1360:SN *95:8 37.779 
2 *95:8 *1136:A 38.1438 
*END

*D_NET *96 6.09077e-05
*CONN
*I *981:A I *D INVx1_ASAP7_75t_R
*I *1361:CON O *D FAx1_ASAP7_75t_R
*CAP
1 *981:A 1.61683e-05
2 *1361:CON 1.61683e-05
3 *981:A *982:A 2.85711e-05
*RES
1 *1361:CON *981:A 30.3032 
*END

*D_NET *97 6.3755e-05
*CONN
*I *982:A I *D INVx1_ASAP7_75t_R
*I *1361:SN O *D FAx1_ASAP7_75t_R
*CAP
1 *982:A 1.75919e-05
2 *1361:SN 1.75919e-05
3 *981:A *982:A 2.85711e-05
*RES
1 *1361:SN *982:A 44.5617 
*END

*D_NET *98 0.000125246
*CONN
*I *915:A I *D INVx1_ASAP7_75t_R
*I *1362:CON O *D FAx1_ASAP7_75t_R
*CAP
1 *915:A 0
2 *1362:CON 1.45917e-05
3 *98:18 2.10189e-05
4 *98:10 3.56106e-05
5 *98:10 *1368:CI 7.83564e-07
6 *98:10 *99:10 9.67723e-06
7 *98:10 *701:35 0
8 *98:10 *714:80 2.41555e-05
9 *98:18 *1368:CI 2.03526e-06
10 *98:18 *99:10 8.18029e-06
11 *98:18 *554:10 8.06436e-06
12 *98:18 *701:35 1.12894e-06
*RES
1 *1362:CON *98:10 46.0281 
2 *98:10 *98:18 46.4779 
3 *98:18 *915:A 17.2 
*END

*D_NET *99 5.94354e-05
*CONN
*I *916:A I *D INVx1_ASAP7_75t_R
*I *1362:SN O *D FAx1_ASAP7_75t_R
*CAP
1 *916:A 0
2 *1362:SN 1.49163e-05
3 *99:10 1.49163e-05
4 *99:10 *554:10 5.79724e-07
5 *99:10 *714:80 1.11656e-05
6 *98:10 *99:10 9.67723e-06
7 *98:18 *99:10 8.18029e-06
*RES
1 *1362:SN *99:10 47.831 
2 *99:10 *916:A 34.4 
*END

*D_NET *100 4.34524e-05
*CONN
*I *940:A I *D INVx1_ASAP7_75t_R
*I *1363:CON O *D FAx1_ASAP7_75t_R
*CAP
1 *940:A 0
2 *1363:CON 2.17262e-05
3 *100:10 2.17262e-05
4 *100:10 *114:6 0
5 *100:10 *115:8 0
6 *100:10 *406:6 0
7 *100:10 *462:10 0
8 *100:10 *552:16 0
9 *100:10 *700:77 0
10 *14:18 *100:10 0
*RES
1 *1363:CON *100:10 48.9573 
2 *100:10 *940:A 17.2 
*END

*D_NET *101 8.14402e-05
*CONN
*I *941:A I *D INVx1_ASAP7_75t_R
*I *1363:SN O *D FAx1_ASAP7_75t_R
*CAP
1 *941:A 2.99989e-05
2 *1363:SN 4.22776e-06
3 *101:8 3.42266e-05
4 *941:A *507:10 8.87763e-06
5 *941:A *553:8 0
6 *101:8 *507:10 4.10928e-06
*RES
1 *1363:SN *101:8 37.779 
2 *101:8 *941:A 46.701 
*END

*D_NET *102 0.00022848
*CONN
*I *1189:A I *D INVx1_ASAP7_75t_R
*I *1364:CON O *D FAx1_ASAP7_75t_R
*CAP
1 *1189:A 1.4223e-05
2 *1364:CON 3.16716e-06
3 *102:12 8.6196e-05
4 *102:8 7.51401e-05
5 *1189:A *1390:A 0
6 *1189:A *1391:CI 1.02072e-05
7 *1189:A *113:40 1.96244e-06
8 *1189:A *833:34 3.19649e-06
9 *1189:A *842:14 0
10 *102:8 *461:8 5.41536e-06
11 *102:12 *506:10 1.5804e-05
12 *102:12 *841:6 0
13 *15:14 *102:12 0
14 *17:12 *102:8 1.31686e-05
*RES
1 *1364:CON *102:8 38.9053 
2 *102:8 *102:12 48.7547 
3 *102:12 *1189:A 46.2265 
*END

*D_NET *103 7.83177e-05
*CONN
*I *1312:A I *D INVx1_ASAP7_75t_R
*I *1364:SN O *D FAx1_ASAP7_75t_R
*CAP
1 *1312:A 0
2 *1364:SN 6.15334e-06
3 *103:16 2.03961e-05
4 *103:8 2.65494e-05
5 *103:8 *1321:A 4.24807e-06
6 *103:8 *1365:A 0
7 *103:8 *698:55 2.891e-06
8 *103:16 *1365:A 5.73675e-06
9 *103:16 *1591:A 5.22376e-07
10 *103:16 *114:10 3.65131e-06
11 *103:16 *552:8 3.92129e-06
12 *17:18 *103:8 4.24807e-06
*RES
1 *1364:SN *103:8 41.158 
2 *103:8 *103:16 48.054 
3 *103:16 *1312:A 34.4 
*END

*D_NET *104 0.000113125
*CONN
*I *1258:A I *D INVx1_ASAP7_75t_R
*I *1365:CON O *D FAx1_ASAP7_75t_R
*CAP
1 *1258:A 1.0027e-05
2 *1365:CON 3.76461e-05
3 *104:9 4.7673e-05
4 *1258:A *635:10 7.68501e-06
5 *104:9 *578:10 1.00935e-05
*RES
1 *1365:CON *104:9 38.0175 
2 *104:9 *1258:A 39.2134 
*END

*D_NET *105 0.000151616
*CONN
*I *1289:A I *D INVx1_ASAP7_75t_R
*I *1365:SN O *D FAx1_ASAP7_75t_R
*CAP
1 *1289:A 1.29983e-05
2 *1365:SN 2.21066e-05
3 *105:16 4.84724e-05
4 *105:10 5.75807e-05
5 *1289:A *537:16 3.10081e-06
6 *1289:A *551:10 7.34247e-06
7 *1289:A *699:51 1.49407e-08
8 *105:10 *1365:A 0
9 *105:10 *116:6 0
10 *105:16 *526:8 0
*RES
1 *1365:SN *105:10 44.7317 
2 *105:10 *105:16 47.7706 
3 *105:16 *1289:A 43.7754 
*END

*D_NET *106 4.50798e-05
*CONN
*I *862:A I *D INVx1_ASAP7_75t_R
*I *1366:CON O *D FAx1_ASAP7_75t_R
*CAP
1 *862:A 2.25399e-05
2 *1366:CON 2.25399e-05
*RES
1 *1366:CON *862:A 29.7684 
*END

*D_NET *107 8.7971e-05
*CONN
*I *863:A I *D INVx1_ASAP7_75t_R
*I *1366:SN O *D FAx1_ASAP7_75t_R
*CAP
1 *863:A 1.79466e-05
2 *1366:SN 1.90317e-05
3 *107:10 3.69782e-05
4 *863:A *1213:B 7.30263e-06
5 *107:10 *470:10 0
6 *107:10 *697:70 6.71184e-06
*RES
1 *1366:SN *107:10 44.8451 
2 *107:10 *863:A 46.701 
*END

*D_NET *108 4.3006e-05
*CONN
*I *998:A I *D INVx1_ASAP7_75t_R
*I *1367:CON O *D FAx1_ASAP7_75t_R
*CAP
1 *998:A 2.12432e-05
2 *1367:CON 2.12432e-05
3 *998:A *120:10 5.19552e-07
*RES
1 *1367:CON *998:A 27.0943 
*END

*D_NET *109 2.69563e-05
*CONN
*I *999:A I *D INVx1_ASAP7_75t_R
*I *1367:SN O *D FAx1_ASAP7_75t_R
*CAP
1 *999:A 0
2 *1367:SN 8.36331e-06
3 *109:10 8.36331e-06
4 *109:10 *121:14 2.83874e-07
5 *109:10 *469:10 9.94583e-06
*RES
1 *1367:SN *109:10 39.3835 
2 *109:10 *999:A 34.4 
*END

*D_NET *110 0.000276068
*CONN
*I *1305:A I *D INVx1_ASAP7_75t_R
*I *1368:CON O *D FAx1_ASAP7_75t_R
*CAP
1 *1305:A 0
2 *1368:CON 1.57594e-05
3 *110:30 2.09288e-05
4 *110:18 0.000105592
5 *110:10 0.000100423
6 *110:10 *1319:B 7.32095e-07
7 *110:10 *111:8 0
8 *110:10 *496:10 5.37866e-07
9 *110:10 *702:63 1.41679e-06
10 *110:10 *714:80 0
11 *110:10 *715:54 2.77387e-08
12 *110:18 *482:20 4.09211e-06
13 *110:18 *493:20 0
14 *110:18 *541:20 2.06888e-07
15 *110:18 *580:20 0
16 *110:18 *700:36 3.28632e-06
17 *110:18 *715:64 2.11834e-05
18 *110:18 *809:20 0
19 *110:30 *1321:CI 0
20 *110:30 *493:20 0
21 *12:8 *110:10 0
22 *13:10 *110:10 1.88168e-06
*RES
1 *1368:CON *110:10 45.3343 
2 *110:10 *110:18 42.4925 
3 *110:18 *110:30 49.7225 
4 *110:30 *1305:A 34.4 
*END

*D_NET *111 0.000214439
*CONN
*I *914:A I *D INVx1_ASAP7_75t_R
*I *1368:SN O *D FAx1_ASAP7_75t_R
*CAP
1 *914:A 0
2 *1368:SN 7.71853e-06
3 *111:18 2.51208e-05
4 *111:14 5.20019e-05
5 *111:8 3.45996e-05
6 *111:8 *1319:B 2.58558e-06
7 *111:8 *714:80 2.66097e-05
8 *111:14 *474:10 3.72177e-05
9 *111:18 *580:8 9.1471e-07
10 *111:18 *699:75 0
11 *111:18 *701:35 5.43508e-07
12 *111:18 *713:72 0
13 *111:18 *713:83 0
14 *111:18 *713:96 0
15 *111:18 *714:106 2.71272e-05
16 *110:10 *111:8 0
*RES
1 *1368:SN *111:8 43.4107 
2 *111:8 *111:14 47.7706 
3 *111:14 *111:18 37.474 
4 *111:18 *914:A 17.2 
*END

*D_NET *112 0.000128499
*CONN
*I *917:A I *D INVx1_ASAP7_75t_R
*I *1369:CON O *D FAx1_ASAP7_75t_R
*CAP
1 *917:A 4.87037e-05
2 *1369:CON 1.04234e-05
3 *112:8 5.91271e-05
4 *112:8 *516:8 5.09995e-06
5 *112:8 *528:16 4.3382e-06
6 *112:8 *715:42 8.06799e-07
7 *43:40 *112:8 0
*RES
1 *1369:CON *112:8 44.537 
2 *112:8 *917:A 35.9189 
*END

*D_NET *113 0.000456489
*CONN
*I *918:A I *D INVx1_ASAP7_75t_R
*I *1369:SN O *D FAx1_ASAP7_75t_R
*CAP
1 *918:A 0
2 *1369:SN 2.09219e-06
3 *113:40 1.712e-05
4 *113:32 8.78767e-05
5 *113:26 0.000119062
6 *113:20 5.88355e-05
7 *113:8 1.26225e-05
8 *113:8 *1369:CI 6.0036e-06
9 *113:8 *517:8 1.12894e-06
10 *113:20 *701:70 1.00474e-06
11 *113:26 *115:28 0
12 *113:32 *115:20 0
13 *113:32 *566:22 0
14 *113:32 *580:28 4.26225e-05
15 *113:32 *715:20 2.90859e-05
16 *113:32 *715:163 6.77392e-05
17 *113:32 *854:20 1.96191e-06
18 *113:40 *716:148 1.38386e-06
19 *1189:A *113:40 1.96244e-06
20 *43:36 *113:20 2.70566e-07
21 *78:20 *113:32 5.71626e-06
*RES
1 *1369:SN *113:8 36.5588 
2 *113:8 *113:20 43.2552 
3 *113:20 *113:26 28.0088 
4 *113:26 *113:32 40.2249 
5 *113:32 *113:40 36.9485 
6 *113:40 *918:A 34.4 
*END

*D_NET *114 0.000326826
*CONN
*I *1187:A I *D INVx1_ASAP7_75t_R
*I *1370:CON O *D FAx1_ASAP7_75t_R
*CAP
1 *1187:A 0
2 *1370:CON 2.56327e-05
3 *114:16 5.96699e-06
4 *114:10 7.83827e-05
5 *114:6 9.80484e-05
6 *114:6 *552:16 8.32229e-05
7 *114:6 *700:77 7.71949e-06
8 *114:6 *799:8 0
9 *114:6 *813:8 5.49212e-07
10 *114:10 *698:55 1.6731e-05
11 *114:10 *715:148 6.34696e-06
12 *114:16 *1365:A 5.74232e-07
13 *114:16 *698:44 0
14 *100:10 *114:6 0
15 *103:16 *114:10 3.65131e-06
*RES
1 *1370:CON *114:6 47.611 
2 *114:6 *114:10 49.8243 
3 *114:10 *114:16 37.779 
4 *114:16 *1187:A 17.2 
*END

*D_NET *115 0.000355694
*CONN
*I *1158:A I *D INVx1_ASAP7_75t_R
*I *1370:SN O *D FAx1_ASAP7_75t_R
*CAP
1 *1158:A 2.02293e-05
2 *1370:SN 1.00824e-06
3 *115:38 3.25893e-05
4 *115:28 9.33022e-05
5 *115:20 8.91708e-05
6 *115:8 9.23686e-06
7 *1158:A *1365:A 0
8 *1158:A *1391:A 0
9 *1158:A *1632:A 0
10 *1158:A *552:8 0
11 *1158:A *801:12 0
12 *115:8 *700:77 1.4374e-06
13 *115:20 *701:70 2.61829e-06
14 *115:28 *527:30 3.3065e-05
15 *115:28 *566:22 2.13911e-05
16 *115:28 *715:20 2.02837e-06
17 *115:28 *715:163 3.73683e-05
18 *115:38 *552:12 1.0921e-05
19 *115:38 *699:57 1.32761e-06
20 *100:10 *115:8 0
21 *113:26 *115:28 0
22 *113:32 *115:20 0
*RES
1 *1370:SN *115:8 35.4325 
2 *115:8 *115:20 43.0858 
3 *115:20 *115:28 42.977 
4 *115:28 *115:38 46.6242 
5 *115:38 *1158:A 48.1976 
*END

*D_NET *116 8.41452e-05
*CONN
*I *1252:A I *D INVx1_ASAP7_75t_R
*I *1371:CON O *D FAx1_ASAP7_75t_R
*CAP
1 *1252:A 0
2 *1371:CON 1.27847e-05
3 *116:6 1.27847e-05
4 *116:6 *117:8 4.65892e-06
5 *116:6 *527:42 5.23062e-06
6 *116:6 *829:10 4.86864e-05
7 *105:10 *116:6 0
*RES
1 *1371:CON *116:6 33.5318 
2 *116:6 *1252:A 34.4 
*END

*D_NET *117 0.000478079
*CONN
*I *1253:A I *D INVx1_ASAP7_75t_R
*I *1371:SN O *D FAx1_ASAP7_75t_R
*CAP
1 *1253:A 0
2 *1371:SN 4.1413e-06
3 *117:42 1.39513e-06
4 *117:36 0.000111091
5 *117:26 0.000160068
6 *117:16 6.76788e-05
7 *117:8 2.14474e-05
8 *117:8 *527:42 8.55218e-06
9 *117:8 *698:44 1.01707e-05
10 *117:16 *416:28 5.42713e-06
11 *117:16 *482:38 1.12535e-06
12 *117:16 *493:40 5.91419e-06
13 *117:16 *552:12 0
14 *117:16 *698:38 2.01569e-05
15 *117:26 *482:28 1.19483e-06
16 *117:26 *493:30 1.04502e-06
17 *117:26 *566:22 5.11981e-07
18 *117:26 *698:26 2.15494e-05
19 *117:26 *854:24 0
20 *117:36 *119:24 3.19508e-05
21 *117:42 *1384:A 0
22 *116:6 *117:8 4.65892e-06
*RES
1 *1371:SN *117:8 40.6887 
2 *117:8 *117:16 38.4184 
3 *117:16 *117:26 40.4266 
4 *117:26 *117:36 49.389 
5 *117:36 *117:42 35.4325 
6 *117:42 *1253:A 17.2 
*END

*D_NET *118 0.00030626
*CONN
*I *1265:A I *D INVx1_ASAP7_75t_R
*I *1372:CON O *D FAx1_ASAP7_75t_R
*CAP
1 *1265:A 0
2 *1372:CON 7.53546e-06
3 *118:30 2.83934e-05
4 *118:22 9.25065e-05
5 *118:14 7.16486e-05
6 *118:14 *854:36 0
7 *118:22 *119:24 9.17823e-05
8 *118:22 *524:26 0
9 *118:22 *536:26 0
10 *118:30 *833:77 1.43936e-05
*RES
1 *1372:CON *118:14 48.7716 
2 *118:14 *118:22 45.9138 
3 *118:22 *118:30 39.7181 
4 *118:30 *1265:A 34.4 
*END

*D_NET *119 0.000340428
*CONN
*I *1266:A I *D INVx1_ASAP7_75t_R
*I *1372:SN O *D FAx1_ASAP7_75t_R
*CAP
1 *1266:A 0
2 *1372:SN 2.03555e-06
3 *119:32 1.62829e-05
4 *119:24 7.43634e-05
5 *119:18 6.26393e-05
6 *119:8 6.59431e-06
7 *119:8 *1372:CI 0
8 *119:8 *829:20 0
9 *119:18 *524:18 0
10 *119:24 *524:26 0
11 *119:24 *716:51 2.4147e-05
12 *119:32 *969:B 8.2174e-07
13 *119:32 *1350:A 1.93655e-05
14 *119:32 *716:36 0
15 *119:32 *828:25 0
16 *119:32 *833:77 1.0445e-05
17 *117:36 *119:24 3.19508e-05
18 *118:22 *119:24 9.17823e-05
*RES
1 *1372:SN *119:8 35.9956 
2 *119:8 *119:18 41.9707 
3 *119:18 *119:24 38.7491 
4 *119:24 *119:32 41.2042 
5 *119:32 *1266:A 34.4 
*END

*D_NET *120 0.000156744
*CONN
*I *990:A I *D INVx1_ASAP7_75t_R
*I *1373:CON O *D FAx1_ASAP7_75t_R
*CAP
1 *990:A 3.43888e-05
2 *1373:CON 2.29177e-05
3 *120:16 3.78451e-05
4 *120:10 2.6374e-05
5 *990:A *1299:A 4.05232e-06
6 *990:A *1299:B 3.89037e-06
7 *990:A *611:10 4.30929e-06
8 *990:A *716:26 2.37269e-06
9 *120:10 *969:A 0
10 *120:10 *1367:CI 1.12894e-06
11 *120:10 *1373:A 1.09842e-06
12 *120:10 *1373:B 0
13 *120:10 *121:14 9.67723e-06
14 *120:10 *716:30 2.68933e-07
15 *120:16 *1373:A 4.1009e-06
16 *120:16 *820:8 3.79923e-06
17 *998:A *120:10 5.19552e-07
*RES
1 *1373:CON *120:10 48.1674 
2 *120:10 *120:16 37.779 
3 *120:16 *990:A 30.5706 
*END

*D_NET *121 0.000155688
*CONN
*I *991:A I *D INVx1_ASAP7_75t_R
*I *1373:SN O *D FAx1_ASAP7_75t_R
*CAP
1 *991:A 0
2 *1373:SN 7.01511e-06
3 *121:14 4.42882e-05
4 *121:8 5.13033e-05
5 *121:14 *1367:CI 1.6136e-06
6 *121:14 *1373:A 1.54556e-05
7 *121:14 *1610:A 5.4219e-06
8 *121:14 *469:10 0
9 *121:14 *562:8 3.3921e-06
10 *121:14 *588:8 7.69873e-06
11 *121:14 *836:8 9.53863e-06
12 *109:10 *121:14 2.83874e-07
13 *120:10 *121:14 9.67723e-06
*RES
1 *1373:SN *121:8 37.0741 
2 *121:8 *121:14 45.8895 
3 *121:14 *991:A 17.2 
*END

*D_NET *122 6.23689e-05
*CONN
*I *1291:A I *D INVx1_ASAP7_75t_R
*I *1374:CON O *D FAx1_ASAP7_75t_R
*CAP
1 *1291:A 0
2 *1374:CON 3.11845e-05
3 *122:10 3.11845e-05
4 *122:10 *1374:CI 0
*RES
1 *1374:CON *122:10 49.067 
2 *122:10 *1291:A 17.2 
*END

*D_NET *123 4.65385e-05
*CONN
*I *1015:A I *D INVx1_ASAP7_75t_R
*I *1374:SN O *D FAx1_ASAP7_75t_R
*CAP
1 *1015:A 2.10492e-05
2 *1374:SN 2.10492e-05
3 *1015:A *1374:B 4.4402e-06
*RES
1 *1374:SN *1015:A 44.5617 
*END

*D_NET *124 1.38604e-05
*CONN
*I *1035:A I *D INVx1_ASAP7_75t_R
*I *1375:CON O *D FAx1_ASAP7_75t_R
*CAP
1 *1035:A 0
2 *1375:CON 6.38484e-06
3 *124:8 6.38484e-06
4 *124:8 *560:10 1.09067e-06
5 *124:8 *573:10 0
*RES
1 *1375:CON *124:8 38.9053 
2 *124:8 *1035:A 17.2 
*END

*D_NET *125 1.93409e-05
*CONN
*I *1036:A I *D INVx1_ASAP7_75t_R
*I *1375:SN O *D FAx1_ASAP7_75t_R
*CAP
1 *1036:A 0
2 *1375:SN 9.67045e-06
3 *125:10 9.67045e-06
*RES
1 *1375:SN *125:10 39.3835 
2 *125:10 *1036:A 34.4 
*END

*D_NET *126 2.30492e-05
*CONN
*I *1073:A I *D INVx1_ASAP7_75t_R
*I *1376:CON O *D FAx1_ASAP7_75t_R
*CAP
1 *1073:A 0
2 *1376:CON 1.04109e-05
3 *126:10 1.04109e-05
4 *126:10 *533:8 2.22736e-06
*RES
1 *1376:CON *126:10 40.5098 
2 *126:10 *1073:A 17.2 
*END

*D_NET *127 5.07198e-05
*CONN
*I *1074:A I *D INVx1_ASAP7_75t_R
*I *1376:SN O *D FAx1_ASAP7_75t_R
*CAP
1 *1074:A 3.15456e-06
2 *1376:SN 2.11029e-05
3 *127:10 2.42574e-05
4 *1074:A *224:6 2.20493e-06
*RES
1 *1376:SN *127:10 43.6621 
2 *127:10 *1074:A 36.0045 
*END

*D_NET *128 6.81977e-05
*CONN
*I *1271:A I *D INVx1_ASAP7_75t_R
*I *1377:CON O *D FAx1_ASAP7_75t_R
*CAP
1 *1271:A 0
2 *1377:CON 3.40356e-05
3 *128:9 3.40356e-05
4 *128:9 *129:10 1.26378e-07
5 *128:9 *688:10 0
*RES
1 *1377:CON *128:9 41.2868 
2 *128:9 *1271:A 34.4 
*END

*D_NET *129 4.11275e-05
*CONN
*I *1270:A I *D INVx1_ASAP7_75t_R
*I *1377:SN O *D FAx1_ASAP7_75t_R
*CAP
1 *1270:A 0
2 *1377:SN 2.01085e-05
3 *129:10 2.01085e-05
4 *129:10 *1378:CI 0
5 *129:10 *688:10 7.84037e-07
6 *128:9 *129:10 1.26378e-07
*RES
1 *1377:SN *129:10 47.831 
2 *129:10 *1270:A 34.4 
*END

*D_NET *130 2.58606e-05
*CONN
*I *1101:A I *D INVx1_ASAP7_75t_R
*I *1378:CON O *D FAx1_ASAP7_75t_R
*CAP
1 *1101:A 0
2 *1378:CON 1.01712e-05
3 *130:10 1.01712e-05
4 *130:10 *641:10 0
5 *130:10 *688:10 5.51814e-06
*RES
1 *1378:CON *130:10 40.5098 
2 *130:10 *1101:A 17.2 
*END

*D_NET *131 7.47511e-05
*CONN
*I *1102:A I *D INVx1_ASAP7_75t_R
*I *1378:SN O *D FAx1_ASAP7_75t_R
*CAP
1 *1102:A 2.04792e-05
2 *1378:SN 1.49968e-05
3 *131:8 3.54759e-05
4 *1102:A *219:10 0
5 *1102:A *641:10 3.79923e-06
*RES
1 *1378:SN *131:8 40.2831 
2 *131:8 *1102:A 47.831 
*END

*D_NET *132 4.64654e-05
*CONN
*I *1108:A I *D INVx1_ASAP7_75t_R
*I *1379:CON O *D FAx1_ASAP7_75t_R
*CAP
1 *1108:A 0
2 *1379:CON 1.7218e-05
3 *132:10 1.7218e-05
4 *132:10 *1109:A 0
5 *132:10 *133:10 9.67723e-06
6 *132:10 *640:8 0
7 *132:10 *656:8 2.35211e-06
*RES
1 *1379:CON *132:10 46.0281 
2 *132:10 *1108:A 17.2 
*END

*D_NET *133 9.09158e-05
*CONN
*I *1109:A I *D INVx1_ASAP7_75t_R
*I *1379:SN O *D FAx1_ASAP7_75t_R
*CAP
1 *1109:A 1.72856e-05
2 *1379:SN 1.90047e-05
3 *133:10 3.62903e-05
4 *1109:A *1441:A 8.65792e-06
5 *132:10 *1109:A 0
6 *132:10 *133:10 9.67723e-06
*RES
1 *1379:SN *133:10 46.0848 
2 *133:10 *1109:A 42.4224 
*END

*D_NET *134 2.92076e-05
*CONN
*I *973:A I *D INVx1_ASAP7_75t_R
*I *1380:CON O *D FAx1_ASAP7_75t_R
*CAP
1 *973:A 1.45406e-05
2 *1380:CON 1.45406e-05
3 *973:A *135:10 1.26378e-07
*RES
1 *1380:CON *973:A 26.5594 
*END

*D_NET *135 1.87327e-05
*CONN
*I *974:A I *D INVx1_ASAP7_75t_R
*I *1380:SN O *D FAx1_ASAP7_75t_R
*CAP
1 *974:A 0
2 *1380:SN 9.30317e-06
3 *135:10 9.30317e-06
4 *973:A *135:10 1.26378e-07
*RES
1 *1380:SN *135:10 39.3835 
2 *135:10 *974:A 34.4 
*END

*D_NET *136 1.40531e-05
*CONN
*I *901:A I *D INVx1_ASAP7_75t_R
*I *1381:CON O *D FAx1_ASAP7_75t_R
*CAP
1 *901:A 0
2 *1381:CON 5.91285e-06
3 *136:8 5.91285e-06
4 *136:8 *1381:CI 2.22736e-06
5 *136:8 *1431:B 0
6 *136:8 *669:10 0
*RES
1 *1381:CON *136:8 38.9053 
2 *136:8 *901:A 17.2 
*END

*D_NET *137 1.73825e-05
*CONN
*I *902:A I *D INVx1_ASAP7_75t_R
*I *1381:SN O *D FAx1_ASAP7_75t_R
*CAP
1 *902:A 0
2 *1381:SN 8.69123e-06
3 *137:10 8.69123e-06
4 *137:10 *1431:B 0
5 *137:10 *638:8 0
*RES
1 *1381:SN *137:10 39.3835 
2 *137:10 *902:A 34.4 
*END

*D_NET *138 2.29955e-05
*CONN
*I *903:A I *D INVx1_ASAP7_75t_R
*I *1382:CON O *D FAx1_ASAP7_75t_R
*CAP
1 *903:A 0
2 *1382:CON 6.94015e-06
3 *138:8 6.94015e-06
4 *138:8 *637:10 0
5 *138:8 *653:10 9.11516e-06
*RES
1 *1382:CON *138:8 42.2843 
2 *138:8 *903:A 17.2 
*END

*D_NET *139 2.0199e-05
*CONN
*I *1300:A I *D INVx1_ASAP7_75t_R
*I *1382:SN O *D FAx1_ASAP7_75t_R
*CAP
1 *1300:A 4.15277e-06
2 *1382:SN 5.94671e-06
3 *139:8 1.00995e-05
4 *139:8 *637:10 0
*RES
1 *1382:SN *139:8 37.779 
2 *139:8 *1300:A 36.0045 
*END

*D_NET *140 2.41547e-05
*CONN
*I *1284:A I *D INVx1_ASAP7_75t_R
*I *1383:CON O *D FAx1_ASAP7_75t_R
*CAP
1 *1284:A 1.20773e-05
2 *1383:CON 1.20773e-05
*RES
1 *1383:CON *1284:A 24.955 
*END

*D_NET *141 2.36227e-05
*CONN
*I *957:A I *D INVx1_ASAP7_75t_R
*I *1383:SN O *D FAx1_ASAP7_75t_R
*CAP
1 *957:A 0
2 *1383:SN 1.18114e-05
3 *141:10 1.18114e-05
4 *141:10 *636:8 0
*RES
1 *1383:SN *141:10 40.4531 
2 *141:10 *957:A 34.4 
*END

*D_NET *142 3.66352e-05
*CONN
*I *958:A I *D INVx1_ASAP7_75t_R
*I *1384:CON O *D FAx1_ASAP7_75t_R
*CAP
1 *958:A 1.82445e-05
2 *1384:CON 1.82445e-05
3 *958:A *143:10 1.46238e-07
*RES
1 *1384:CON *958:A 27.0943 
*END

*D_NET *143 0.000147633
*CONN
*I *959:A I *D INVx1_ASAP7_75t_R
*I *1384:SN O *D FAx1_ASAP7_75t_R
*CAP
1 *959:A 0
2 *1384:SN 9.97554e-06
3 *143:14 5.66213e-05
4 *143:10 6.65968e-05
5 *143:14 *650:8 1.42928e-05
6 *958:A *143:10 1.46238e-07
*RES
1 *1384:SN *143:10 39.3835 
2 *143:10 *143:14 42.3368 
3 *143:14 *959:A 17.2 
*END

*D_NET *144 2.52127e-05
*CONN
*I *1030:A I *D INVx1_ASAP7_75t_R
*I *1385:CON O *D FAx1_ASAP7_75t_R
*CAP
1 *1030:A 1.25432e-05
2 *1385:CON 1.25432e-05
3 *1030:A *145:10 1.26378e-07
*RES
1 *1385:CON *1030:A 24.955 
*END

*D_NET *145 0.000130494
*CONN
*I *1269:A I *D INVx1_ASAP7_75t_R
*I *1385:SN O *D FAx1_ASAP7_75t_R
*CAP
1 *1269:A 0
2 *1385:SN 9.58331e-06
3 *145:20 2.20643e-05
4 *145:16 5.29966e-05
5 *145:10 4.05156e-05
6 *145:10 *634:10 1.09842e-06
7 *145:20 *1386:CI 4.10928e-06
8 *1030:A *145:10 1.26378e-07
*RES
1 *1385:SN *145:10 39.3835 
2 *145:10 *145:16 48.8403 
3 *145:16 *145:20 34.6581 
4 *145:20 *1269:A 17.2 
*END

*D_NET *146 3.85973e-05
*CONN
*I *1249:A I *D INVx1_ASAP7_75t_R
*I *1386:CON O *D FAx1_ASAP7_75t_R
*CAP
1 *1249:A 0
2 *1386:CON 7.2209e-06
3 *146:8 7.2209e-06
4 *146:8 *1386:CI 2.41555e-05
*RES
1 *1386:CON *146:8 43.4107 
2 *146:8 *1249:A 17.2 
*END

*D_NET *147 1.09276e-05
*CONN
*I *1251:A I *D INVx1_ASAP7_75t_R
*I *1386:SN O *D FAx1_ASAP7_75t_R
*CAP
1 *1251:A 0
2 *1386:SN 5.46379e-06
3 *147:8 5.46379e-06
4 *147:8 *678:10 0
*RES
1 *1386:SN *147:8 37.779 
2 *147:8 *1251:A 34.4 
*END

*D_NET *148 6.78268e-05
*CONN
*I *1110:A I *D INVx1_ASAP7_75t_R
*I *1387:CON O *D FAx1_ASAP7_75t_R
*CAP
1 *1110:A 1.78962e-05
2 *1387:CON 1.78962e-05
3 *1110:A *1111:A 3.20343e-05
*RES
1 *1387:CON *1110:A 31.9077 
*END

*D_NET *149 7.05606e-05
*CONN
*I *1111:A I *D INVx1_ASAP7_75t_R
*I *1387:SN O *D FAx1_ASAP7_75t_R
*CAP
1 *1111:A 1.92632e-05
2 *1387:SN 1.92632e-05
3 *1110:A *1111:A 3.20343e-05
*RES
1 *1387:SN *1111:A 45.6313 
*END

*D_NET *150 3.13163e-05
*CONN
*I *975:A I *D INVx1_ASAP7_75t_R
*I *1388:CON O *D FAx1_ASAP7_75t_R
*CAP
1 *975:A 1.50895e-05
2 *1388:CON 1.50895e-05
3 *975:A *151:10 1.1374e-06
*RES
1 *1388:CON *975:A 27.0943 
*END

*D_NET *151 2.79498e-05
*CONN
*I *976:A I *D INVx1_ASAP7_75t_R
*I *1388:SN O *D FAx1_ASAP7_75t_R
*CAP
1 *976:A 0
2 *1388:SN 1.34062e-05
3 *151:10 1.34062e-05
4 *151:10 *1388:B 0
5 *975:A *151:10 1.1374e-06
*RES
1 *1388:SN *151:10 41.5228 
2 *151:10 *976:A 34.4 
*END

*D_NET *152 2.76409e-05
*CONN
*I *904:A I *D INVx1_ASAP7_75t_R
*I *1389:CON O *D FAx1_ASAP7_75t_R
*CAP
1 *904:A 1.37573e-05
2 *1389:CON 1.37573e-05
3 *904:A *153:10 1.26378e-07
*RES
1 *1389:CON *904:A 25.4898 
*END

*D_NET *153 4.97419e-05
*CONN
*I *905:A I *D INVx1_ASAP7_75t_R
*I *1389:SN O *D FAx1_ASAP7_75t_R
*CAP
1 *905:A 0
2 *1389:SN 1.87786e-05
3 *153:10 1.87786e-05
4 *153:10 *594:14 1.15055e-05
5 *904:A *153:10 1.26378e-07
6 *66:14 *153:10 5.52807e-07
*RES
1 *1389:SN *153:10 47.831 
2 *153:10 *905:A 34.4 
*END

*D_NET *154 8.37226e-05
*CONN
*I *908:A I *D INVx1_ASAP7_75t_R
*I *1390:CON O *D FAx1_ASAP7_75t_R
*CAP
1 *908:A 0
2 *1390:CON 3.00161e-05
3 *154:9 3.00161e-05
4 *154:9 *909:A 4.90993e-06
5 *154:9 *1390:B 3.34981e-06
6 *154:9 *652:8 1.54305e-05
*RES
1 *1390:CON *154:9 39.2572 
2 *154:9 *908:A 34.4 
*END

*D_NET *155 6.92641e-05
*CONN
*I *909:A I *D INVx1_ASAP7_75t_R
*I *1390:SN O *D FAx1_ASAP7_75t_R
*CAP
1 *909:A 3.05022e-05
2 *1390:SN 3.05022e-05
3 *909:A *1390:B 3.34981e-06
4 *154:9 *909:A 4.90993e-06
*RES
1 *1390:SN *909:A 48.8403 
*END

*D_NET *156 9.91126e-05
*CONN
*I *1209:A I *D INVx1_ASAP7_75t_R
*I *1391:CON O *D FAx1_ASAP7_75t_R
*CAP
1 *1209:A 4.26231e-05
2 *1391:CON 4.26231e-05
3 *1209:A *157:6 7.49819e-06
4 *1209:A *651:10 6.36827e-06
*RES
1 *1391:CON *1209:A 40.9997 
*END

*D_NET *157 9.03289e-05
*CONN
*I *1250:A I *D INVx1_ASAP7_75t_R
*I *1391:SN O *D FAx1_ASAP7_75t_R
*CAP
1 *1250:A 0
2 *1391:SN 4.14154e-05
3 *157:6 4.14154e-05
4 *1209:A *157:6 7.49819e-06
*RES
1 *1391:SN *157:6 34.8492 
2 *157:6 *1250:A 17.2 
*END

*D_NET *158 3.05001e-05
*CONN
*I *1159:A I *D INVx1_ASAP7_75t_R
*I *1392:CON O *D FAx1_ASAP7_75t_R
*CAP
1 *1159:A 0
2 *1392:CON 1.5005e-05
3 *158:10 1.5005e-05
4 *158:10 *1392:CI 0
5 *158:10 *159:10 4.90042e-07
*RES
1 *1392:CON *158:10 43.8888 
2 *158:10 *1159:A 17.2 
*END

*D_NET *159 0.000239963
*CONN
*I *1310:A I *D INVx1_ASAP7_75t_R
*I *1392:SN O *D FAx1_ASAP7_75t_R
*CAP
1 *1310:A 3.73702e-05
2 *1392:SN 1.32413e-05
3 *159:20 4.28419e-05
4 *159:14 5.97581e-05
5 *159:10 6.75276e-05
6 *159:10 *1392:A 9.75645e-07
7 *159:10 *1392:B 3.38221e-06
8 *159:14 *971:B 0
9 *159:14 *635:10 6.21979e-06
10 *159:14 *770:22 8.15645e-06
11 *158:10 *159:10 4.90042e-07
*RES
1 *1392:SN *159:10 41.5228 
2 *159:10 *159:14 36.9885 
3 *159:14 *159:20 37.779 
4 *159:20 *1310:A 31.6403 
*END

*D_NET *160 3.2395e-05
*CONN
*I *1210:A I *D INVx1_ASAP7_75t_R
*I *1393:CON O *D FAx1_ASAP7_75t_R
*CAP
1 *1210:A 0
2 *1393:CON 9.20715e-06
3 *160:10 9.20715e-06
4 *160:10 *1393:CI 1.33022e-05
5 *160:10 *576:8 6.7842e-07
*RES
1 *1393:CON *160:10 40.5098 
2 *160:10 *1210:A 17.2 
*END

*D_NET *161 4.18332e-05
*CONN
*I *1188:A I *D INVx1_ASAP7_75t_R
*I *1393:SN O *D FAx1_ASAP7_75t_R
*CAP
1 *1188:A 2.09166e-05
2 *1393:SN 2.09166e-05
*RES
1 *1393:SN *1188:A 44.5617 
*END

*D_NET *162 4.60695e-05
*CONN
*I *1263:A I *D INVx1_ASAP7_75t_R
*I *1394:CON O *D FAx1_ASAP7_75t_R
*CAP
1 *1263:A 0
2 *1394:CON 2.26164e-05
3 *162:10 2.26164e-05
4 *162:10 *1394:A 0
5 *162:10 *1394:B 8.3668e-07
*RES
1 *1394:CON *162:10 44.7884 
2 *162:10 *1263:A 17.2 
*END

*D_NET *163 2.43434e-05
*CONN
*I *1264:A I *D INVx1_ASAP7_75t_R
*I *1394:SN O *D FAx1_ASAP7_75t_R
*CAP
1 *1264:A 0
2 *1394:SN 1.21717e-05
3 *163:10 1.21717e-05
4 *163:10 *589:18 0
*RES
1 *1394:SN *163:10 40.4531 
2 *163:10 *1264:A 34.4 
*END

*D_NET *164 2.07533e-05
*CONN
*I *988:A I *D INVx1_ASAP7_75t_R
*I *1395:CON O *D FAx1_ASAP7_75t_R
*CAP
1 *988:A 0
2 *1395:CON 9.63905e-06
3 *164:8 9.63905e-06
4 *164:8 *548:10 0
5 *164:8 *548:18 1.47516e-06
*RES
1 *1395:CON *164:8 42.2843 
2 *164:8 *988:A 17.2 
*END

*D_NET *165 2.01638e-05
*CONN
*I *989:A I *D INVx1_ASAP7_75t_R
*I *1395:SN O *D FAx1_ASAP7_75t_R
*CAP
1 *989:A 3.6513e-06
2 *1395:SN 6.17786e-06
3 *165:8 9.82917e-06
4 *989:A *1427:B 5.0551e-07
*RES
1 *1395:SN *165:8 37.779 
2 *165:8 *989:A 36.0045 
*END

*D_NET *166 6.47771e-05
*CONN
*I *1004:A I *D INVx1_ASAP7_75t_R
*I *1396:CON O *D FAx1_ASAP7_75t_R
*CAP
1 *1004:A 0
2 *1396:CON 3.10364e-05
3 *166:10 3.10364e-05
4 *166:10 *587:8 2.70427e-06
*RES
1 *1396:CON *166:10 49.237 
2 *166:10 *1004:A 17.2 
*END

*D_NET *167 1.08425e-05
*CONN
*I *1005:A I *D INVx1_ASAP7_75t_R
*I *1396:SN O *D FAx1_ASAP7_75t_R
*CAP
1 *1005:A 0
2 *1396:SN 5.42126e-06
3 *167:8 5.42126e-06
*RES
1 *1396:SN *167:8 37.779 
2 *167:8 *1005:A 34.4 
*END

*D_NET *168 9.0672e-05
*CONN
*I *950:A I *D INVx1_ASAP7_75t_R
*I *1397:CON O *D FAx1_ASAP7_75t_R
*CAP
1 *950:A 2.79097e-05
2 *1397:CON 5.15154e-06
3 *168:8 3.30612e-05
4 *950:A *440:10 1.04475e-06
5 *168:8 *964:A 8.51183e-06
6 *947:A *950:A 2.03526e-06
7 *26:6 *168:8 4.89331e-06
8 *27:10 *168:8 8.06436e-06
*RES
1 *1397:CON *168:8 41.158 
2 *168:8 *950:A 32.7099 
*END

*D_NET *169 5.02107e-05
*CONN
*I *951:A I *D INVx1_ASAP7_75t_R
*I *1397:SN O *D FAx1_ASAP7_75t_R
*CAP
1 *951:A 4.07648e-06
2 *1397:SN 1.15145e-05
3 *169:8 1.5591e-05
4 *951:A *528:12 5.22376e-07
5 *169:8 *702:80 8.29921e-06
6 *919:A *951:A 0
7 *26:6 *169:8 1.02072e-05
*RES
1 *1397:SN *169:8 46.2265 
2 *169:8 *951:A 36.0045 
*END

*D_NET *170 5.99389e-05
*CONN
*I *961:A I *D INVx1_ASAP7_75t_R
*I *1398:CON O *D FAx1_ASAP7_75t_R
*CAP
1 *961:A 0
2 *1398:CON 2.26042e-05
3 *170:10 2.26042e-05
4 *170:10 *1398:B 8.6318e-06
5 *170:10 *558:16 6.09878e-06
6 *170:10 *599:10 0
7 *170:10 *610:8 0
*RES
1 *1398:CON *170:10 49.237 
2 *170:10 *961:A 17.2 
*END

*D_NET *171 5.81923e-05
*CONN
*I *1297:A I *D INVx1_ASAP7_75t_R
*I *1398:SN O *D FAx1_ASAP7_75t_R
*CAP
1 *1297:A 2.90961e-05
2 *1398:SN 2.90961e-05
*RES
1 *1398:SN *1297:A 47.7706 
*END

*D_NET *172 0.000279544
*CONN
*I *1060:C I *D OA211x2_ASAP7_75t_R
*I *1053:B I *D OA21x2_ASAP7_75t_R
*I *1055:A2 I *D AO21x2_ASAP7_75t_R
*I *1056:B I *D AND2x2_ASAP7_75t_R
*I *1093:A I *D OR2x2_ASAP7_75t_R
*I *1399:CON O *D HAxp5_ASAP7_75t_R
*CAP
1 *1060:C 1.79332e-05
2 *1053:B 1.24979e-05
3 *1055:A2 9.18378e-06
4 *1056:B 1.41505e-05
5 *1093:A 5.27595e-06
6 *1399:CON 2.36048e-05
7 *172:14 2.60208e-05
8 *172:12 2.21e-05
9 *172:10 2.06875e-05
10 *172:8 4.34057e-05
11 *1053:B *777:6 3.56648e-06
12 *1055:A2 *1055:B 1.44167e-06
13 *1060:C *1053:A2 0
14 *1060:C *281:22 2.20493e-06
15 *1060:C *291:8 1.18273e-05
16 *1093:A *291:8 4.97654e-06
17 *172:8 *173:6 4.17901e-06
18 *172:8 *173:19 1.04475e-06
19 *172:10 *291:8 3.35641e-06
20 *172:12 *291:8 2.16352e-05
21 *172:12 *777:12 6.6421e-06
22 *172:14 *287:10 0
23 *172:14 *291:8 2.21506e-05
24 *172:14 *777:12 1.65843e-06
*RES
1 *1399:CON *172:8 48.8403 
2 *172:8 *172:10 1.6895 
3 *172:10 *172:12 7.88432 
4 *172:12 *172:14 7.88432 
5 *172:14 *1093:A 37.694 
6 *172:14 *1056:B 40.2831 
7 *172:12 *1055:A2 39.2134 
8 *172:10 *1053:B 42.4224 
9 *172:8 *1060:C 47.0977 
*END

*D_NET *173 3.50699e-05
*CONN
*I *1055:A1 I *D AO21x2_ASAP7_75t_R
*I *1567:A I *D BUFx3_ASAP7_75t_R
*I *1399:SN O *D HAxp5_ASAP7_75t_R
*CAP
1 *1055:A1 0
2 *1567:A 0
3 *1399:SN 5.82033e-06
4 *173:19 9.10276e-06
5 *173:6 1.49231e-05
6 *173:19 *291:8 0
7 *172:8 *173:6 4.17901e-06
8 *172:8 *173:19 1.04475e-06
*RES
1 *1399:SN *173:6 21.4786 
2 *173:6 *1567:A 17.2 
3 *173:6 *173:19 40.5098 
4 *173:19 *1055:A1 17.2 
*END

*D_NET *174 4.93186e-05
*CONN
*I *948:A I *D INVx1_ASAP7_75t_R
*I *1557:A I *D BUFx3_ASAP7_75t_R
*I *1400:CON O *D HAxp5_ASAP7_75t_R
*CAP
1 *948:A 0
2 *1557:A 0
3 *1400:CON 5.57259e-06
4 *174:14 1.80419e-05
5 *174:6 2.36145e-05
6 *174:6 *175:8 2.0895e-06
7 *174:14 *767:14 0
*RES
1 *1400:CON *174:6 20.9438 
2 *174:6 *174:14 44.9585 
3 *174:14 *1557:A 17.2 
4 *174:6 *948:A 17.2 
*END

*D_NET *175 8.91716e-05
*CONN
*I *949:A I *D INVx1_ASAP7_75t_R
*I *1400:SN O *D HAxp5_ASAP7_75t_R
*CAP
1 *949:A 3.92354e-06
2 *1400:SN 3.07776e-05
3 *175:8 3.47011e-05
4 *949:A *767:14 9.81516e-06
5 *1314:B *175:8 7.86466e-06
6 *174:6 *175:8 2.0895e-06
*RES
1 *1400:SN *175:8 48.8403 
2 *175:8 *949:A 37.779 
*END

*D_NET *176 0.000260707
*CONN
*I *1183:B I *D OA21x2_ASAP7_75t_R
*I *1153:B I *D OA211x2_ASAP7_75t_R
*I *1155:C I *D OA221x2_ASAP7_75t_R
*I *1401:CON O *D HAxp5_ASAP7_75t_R
*CAP
1 *1183:B 0
2 *1153:B 0
3 *1155:C 0
4 *1401:CON 2.64565e-05
5 *176:32 3.35999e-05
6 *176:21 5.02069e-05
7 *176:14 5.3501e-05
8 *176:8 6.33506e-05
9 *176:14 *1155:B2 6.7842e-07
10 *176:14 *340:10 1.09842e-06
11 *176:14 *341:10 0
12 *176:14 *761:10 0
13 *176:14 *792:8 0
14 *176:14 *792:12 5.25278e-06
15 *176:21 *1153:A1 1.2768e-05
16 *176:21 *792:12 5.25278e-06
17 *176:32 *1157:B2 3.16603e-06
18 *176:32 *793:10 5.37569e-06
*RES
1 *1401:CON *176:8 49.9099 
2 *176:8 *176:14 41.6109 
3 *176:14 *1155:C 17.2 
4 *176:14 *176:21 11.7662 
5 *176:21 *1153:B 17.2 
6 *176:21 *176:32 37.8634 
7 *176:32 *1183:B 34.4 
*END

*D_NET *177 4.55432e-05
*CONN
*I *1582:A I *D BUFx3_ASAP7_75t_R
*I *1144:B I *D OR3x1_ASAP7_75t_R
*I *1401:SN O *D HAxp5_ASAP7_75t_R
*CAP
1 *1582:A 0
2 *1144:B 7.91036e-06
3 *1401:SN 8.97416e-06
4 *177:10 7.91036e-06
5 *177:8 8.97416e-06
6 *1144:B *192:12 8.31096e-06
7 *1144:B *317:12 3.46317e-06
8 *177:8 *1144:A 0
9 *177:8 *792:8 0
*RES
1 *1401:SN *177:8 41.158 
2 *177:8 *177:10 17.2 
3 *177:10 *1144:B 24.1527 
4 *177:10 *1582:A 17.2 
*END

*D_NET *178 7.02582e-05
*CONN
*I *1040:B I *D OA21x2_ASAP7_75t_R
*I *1402:CON O *D HAxp5_ASAP7_75t_R
*CAP
1 *1040:B 1.14917e-05
2 *1402:CON 9.55736e-06
3 *178:8 2.1049e-05
4 *1040:B *179:10 5.37569e-06
5 *178:8 *179:10 5.51397e-07
6 *178:8 *675:12 2.28976e-06
7 *178:8 *675:23 1.17973e-05
8 *178:8 *692:17 8.146e-06
9 *2:14 *1040:B 0
*RES
1 *1402:CON *178:8 44.5617 
2 *178:8 *1040:B 43.4107 
*END

*D_NET *179 3.0515e-05
*CONN
*I *1040:A2 I *D OA21x2_ASAP7_75t_R
*I *1402:SN O *D HAxp5_ASAP7_75t_R
*CAP
1 *1040:A2 2.06505e-06
2 *1402:SN 9.95251e-06
3 *179:10 1.20176e-05
4 *179:10 *786:8 5.52807e-07
5 *1040:B *179:10 5.37569e-06
6 *178:8 *179:10 5.51397e-07
*RES
1 *1402:SN *179:10 40.5098 
2 *179:10 *1040:A2 35.4697 
*END

*D_NET *180 9.21414e-05
*CONN
*I *1047:B I *D OA21x2_ASAP7_75t_R
*I *1403:CON O *D HAxp5_ASAP7_75t_R
*CAP
1 *1047:B 0
2 *1403:CON 1.01955e-05
3 *180:12 1.84752e-05
4 *180:8 2.86707e-05
5 *180:12 *1060:A1 0
6 *180:12 *181:8 1.09067e-06
7 *180:12 *278:25 0
8 *180:12 *821:14 3.37093e-05
*RES
1 *1403:CON *180:8 40.2831 
2 *180:8 *180:12 33.5318 
3 *180:12 *1047:B 17.2 
*END

*D_NET *181 3.30835e-05
*CONN
*I *1565:A I *D BUFx3_ASAP7_75t_R
*I *1403:SN O *D HAxp5_ASAP7_75t_R
*CAP
1 *1565:A 9.62515e-06
2 *1403:SN 6.37128e-06
3 *181:8 1.59964e-05
4 *180:12 *181:8 1.09067e-06
*RES
1 *1403:SN *181:8 38.9053 
2 *181:8 *1565:A 40.2831 
*END

*D_NET *182 7.6685e-05
*CONN
*I *1575:A I *D BUFx3_ASAP7_75t_R
*I *1059:A2 I *D OA21x2_ASAP7_75t_R
*I *1404:CON O *D HAxp5_ASAP7_75t_R
*CAP
1 *1575:A 0
2 *1059:A2 0
3 *1404:CON 0
4 *182:27 1.45315e-05
5 *182:14 2.0758e-05
6 *182:4 3.52895e-05
7 *182:14 *681:10 0
8 *182:14 *843:41 0
9 *182:27 *183:6 6.10603e-06
*RES
1 *1404:CON *182:4 17.2 
2 *182:4 *182:14 48.2808 
3 *182:14 *1059:A2 17.2 
4 *182:4 *182:27 45.9147 
5 *182:27 *1575:A 17.2 
*END

*D_NET *183 0.000222517
*CONN
*I *1055:B I *D AO21x2_ASAP7_75t_R
*I *1093:B I *D OR2x2_ASAP7_75t_R
*I *1564:A I *D BUFx3_ASAP7_75t_R
*I *1404:SN O *D HAxp5_ASAP7_75t_R
*CAP
1 *1055:B 1.12915e-05
2 *1093:B 5.94093e-06
3 *1564:A 0
4 *1404:SN 2.82603e-05
5 *183:19 2.55531e-05
6 *183:10 1.55159e-05
7 *183:6 3.54555e-05
8 *1055:B *291:8 3.41013e-05
9 *183:6 *769:6 2.28976e-06
10 *183:6 *772:23 9.67251e-06
11 *183:10 *291:8 2.36473e-05
12 *183:10 *772:23 0
13 *183:19 *291:8 2.32408e-05
14 *1055:A2 *1055:B 1.44167e-06
15 *182:27 *183:6 6.10603e-06
*RES
1 *1404:SN *183:6 37.5233 
2 *183:6 *183:10 25.0843 
3 *183:10 *1564:A 34.4 
4 *183:10 *183:19 7.88432 
5 *183:19 *1093:B 37.0741 
6 *183:19 *1055:B 46.733 
*END

*D_NET *184 0.00017685
*CONN
*I *1065:B I *D OA21x2_ASAP7_75t_R
*I *1574:A I *D BUFx3_ASAP7_75t_R
*I *1114:A I *D OR3x2_ASAP7_75t_R
*I *1405:CON O *D HAxp5_ASAP7_75t_R
*CAP
1 *1065:B 2.15359e-06
2 *1574:A 0
3 *1114:A 0
4 *1405:CON 1.21599e-05
5 *184:31 1.0221e-05
6 *184:25 3.38017e-05
7 *184:14 2.28736e-05
8 *184:8 5.64606e-05
9 *1065:B *190:17 4.26607e-06
10 *184:14 *185:12 6.33206e-07
11 *184:14 *185:20 0
12 *184:14 *300:8 0
13 *184:14 *667:10 0
14 *184:14 *683:8 0
15 *184:14 *840:24 6.79293e-06
16 *184:25 *185:12 1.89962e-06
17 *184:25 *185:36 1.10148e-05
18 *184:25 *185:46 3.76128e-06
19 *184:25 *185:59 0
20 *184:25 *190:6 3.89037e-06
21 *184:25 *190:17 4.07212e-06
22 *184:25 *667:10 0
23 *184:31 *1059:A1 2.17647e-06
24 *184:31 *190:17 0
25 *184:31 *843:14 6.72662e-07
*RES
1 *1405:CON *184:8 41.3527 
2 *184:8 *184:14 35.7278 
3 *184:14 *1114:A 17.2 
4 *184:8 *184:25 35.1363 
5 *184:25 *184:31 41.158 
6 *184:31 *1574:A 17.2 
7 *184:25 *1065:B 18.8045 
*END

*D_NET *185 0.000225793
*CONN
*I *1562:A I *D BUFx3_ASAP7_75t_R
*I *1065:A1 I *D OA21x2_ASAP7_75t_R
*I *1090:B I *D OR4x2_ASAP7_75t_R
*I *1113:B I *D OR3x2_ASAP7_75t_R
*I *1405:SN O *D HAxp5_ASAP7_75t_R
*CAP
1 *1562:A 0
2 *1065:A1 0
3 *1090:B 6.17824e-06
4 *1113:B 0
5 *1405:SN 0
6 *185:59 2.30278e-05
7 *185:46 2.02744e-05
8 *185:36 5.19124e-05
9 *185:20 9.54174e-06
10 *185:12 3.42264e-05
11 *185:6 2.71165e-05
12 *1090:B *1090:D 3.90258e-06
13 *185:12 *1090:D 3.68287e-06
14 *185:20 *1090:D 2.32002e-05
15 *185:20 *300:8 2.9349e-06
16 *185:20 *840:16 1.04475e-06
17 *185:46 *190:6 1.44167e-06
18 *184:14 *185:12 6.33206e-07
19 *184:14 *185:20 0
20 *184:25 *185:12 1.89962e-06
21 *184:25 *185:36 1.10148e-05
22 *184:25 *185:46 3.76128e-06
23 *184:25 *185:59 0
*RES
1 *1405:SN *185:6 34.4 
2 *185:6 *185:12 27.9815 
3 *185:12 *185:20 44.4803 
4 *185:20 *1113:B 17.2 
5 *185:12 *1090:B 20.409 
6 *185:6 *185:36 26.2107 
7 *185:36 *185:46 43.6621 
8 *185:46 *1065:A1 17.2 
9 *185:36 *185:59 45.8581 
10 *185:59 *1562:A 17.2 
*END

*D_NET *186 0.000144953
*CONN
*I *1047:A2 I *D OA21x2_ASAP7_75t_R
*I *1044:B I *D OA21x2_ASAP7_75t_R
*I *1406:CON O *D HAxp5_ASAP7_75t_R
*CAP
1 *1047:A2 0
2 *1044:B 1.16527e-05
3 *1406:CON 7.83994e-06
4 *186:18 1.86955e-05
5 *186:12 2.2776e-05
6 *186:8 2.35731e-05
7 *1044:B *278:14 1.12439e-05
8 *1044:B *771:6 2.0895e-06
9 *1044:B *771:15 2.0895e-06
10 *1044:B *775:39 8.23084e-06
11 *1044:B *821:23 2.03526e-06
12 *186:8 *775:14 0
13 *186:8 *775:20 0
14 *186:12 *775:14 5.41446e-06
15 *186:18 *775:14 1.89962e-06
16 *186:18 *775:20 1.12894e-06
17 *186:18 *821:8 6.45149e-06
18 *186:18 *821:14 1.66659e-05
19 *186:18 *821:38 3.16603e-06
*RES
1 *1406:CON *186:8 40.0317 
2 *186:8 *186:12 26.292 
3 *186:12 *186:18 42.2843 
4 *186:18 *1044:B 27.3617 
5 *186:12 *1047:A2 17.2 
*END

*D_NET *187 1.54833e-05
*CONN
*I *1611:A I *D BUFx3_ASAP7_75t_R
*I *1406:SN O *D HAxp5_ASAP7_75t_R
*CAP
1 *1611:A 0
2 *1406:SN 6.39547e-06
3 *187:8 6.39547e-06
4 *187:8 *280:8 7.84772e-07
5 *187:8 *775:20 1.9076e-06
6 *187:8 *821:46 0
*RES
1 *1406:SN *187:8 38.9053 
2 *187:8 *1611:A 34.4 
*END

*D_NET *188 0.000234133
*CONN
*I *1149:C I *D OA211x2_ASAP7_75t_R
*I *1580:A I *D BUFx3_ASAP7_75t_R
*I *1407:CON O *D HAxp5_ASAP7_75t_R
*CAP
1 *1149:C 1.8783e-05
2 *1580:A 0
3 *1407:CON 3.36487e-06
4 *188:16 2.56637e-05
5 *188:12 7.32192e-05
6 *188:8 6.97033e-05
7 *1149:C *764:8 5.37866e-07
8 *188:8 *189:8 1.19435e-05
9 *188:12 *335:14 8.23084e-06
10 *188:12 *838:12 1.23408e-05
11 *188:12 *838:20 9.52454e-06
12 *188:16 *335:8 0
13 *188:16 *764:8 8.2174e-07
*RES
1 *1407:CON *188:8 38.3422 
2 *188:8 *188:12 46.6154 
3 *188:12 *188:16 21.7053 
4 *188:16 *1580:A 34.4 
5 *188:16 *1149:C 46.2512 
*END

*D_NET *189 4.51802e-05
*CONN
*I *1628:A I *D BUFx3_ASAP7_75t_R
*I *1407:SN O *D HAxp5_ASAP7_75t_R
*CAP
1 *1628:A 3.38542e-06
2 *1407:SN 1.04851e-05
3 *189:8 1.38705e-05
4 *189:8 *237:8 0
5 *189:8 *685:8 0
6 *189:8 *838:20 4.94291e-06
7 *189:8 *840:57 5.52807e-07
8 *188:8 *189:8 1.19435e-05
*RES
1 *1407:SN *189:8 44.537 
2 *189:8 *1628:A 36.0045 
*END

*D_NET *190 0.000119734
*CONN
*I *1059:B I *D OA21x2_ASAP7_75t_R
*I *1065:A2 I *D OA21x2_ASAP7_75t_R
*I *1408:CON O *D HAxp5_ASAP7_75t_R
*CAP
1 *1059:B 0
2 *1065:A2 0
3 *1408:CON 1.43062e-05
4 *190:17 3.19201e-05
5 *190:6 4.62263e-05
6 *190:6 *191:10 1.86049e-06
7 *190:17 *1086:B 5.3483e-06
8 *190:17 *1087:B 6.40194e-06
9 *190:17 *782:18 0
10 *1065:B *190:17 4.26607e-06
11 *184:25 *190:6 3.89037e-06
12 *184:25 *190:17 4.07212e-06
13 *184:31 *190:17 0
14 *185:46 *190:6 1.44167e-06
*RES
1 *1408:CON *190:6 25.7572 
2 *190:6 *1065:A2 17.2 
3 *190:6 *190:17 41.076 
4 *190:17 *1059:B 34.4 
*END

*D_NET *191 2.91014e-05
*CONN
*I *1633:A I *D BUFx3_ASAP7_75t_R
*I *1408:SN O *D HAxp5_ASAP7_75t_R
*CAP
1 *1633:A 0
2 *1408:SN 1.36205e-05
3 *191:10 1.36205e-05
4 *190:6 *191:10 1.86049e-06
*RES
1 *1408:SN *191:10 41.5795 
2 *191:10 *1633:A 34.4 
*END

*D_NET *192 0.000697821
*CONN
*I *1182:B I *D OA21x2_ASAP7_75t_R
*I *1140:C I *D OA211x2_ASAP7_75t_R
*I *1142:B2 I *D AO32x1_ASAP7_75t_R
*I *1154:B I *D OA21x2_ASAP7_75t_R
*I *1153:A1 I *D OA211x2_ASAP7_75t_R
*I *1409:CON O *D HAxp5_ASAP7_75t_R
*CAP
1 *1182:B 0
2 *1140:C 5.07189e-06
3 *1142:B2 1.30011e-05
4 *1154:B 1.22573e-05
5 *1153:A1 3.15526e-06
6 *1409:CON 3.97728e-06
7 *192:44 1.8073e-05
8 *192:42 4.62092e-05
9 *192:40 4.62092e-05
10 *192:38 6.06077e-06
11 *192:29 3.1753e-05
12 *192:16 2.69549e-05
13 *192:12 9.96868e-05
14 *192:10 8.93221e-05
15 *192:8 3.97728e-06
16 *1140:C *320:31 3.3921e-06
17 *1140:C *320:39 1.35684e-06
18 *1140:C *320:52 1.44639e-06
19 *1140:C *327:10 1.04475e-06
20 *1142:B2 *1140:A1 9.30483e-06
21 *1142:B2 *1140:A2 5.85387e-06
22 *1142:B2 *320:31 1.43369e-05
23 *1153:A1 *792:12 6.7842e-07
24 *1153:A1 *792:25 5.09299e-06
25 *1154:B *787:6 3.87418e-05
26 *192:8 *1144:A 3.92018e-06
27 *192:8 *1563:A 1.26641e-06
28 *192:8 *672:10 0
29 *192:12 *1144:A 1.02506e-06
30 *192:12 *193:8 3.68287e-06
31 *192:12 *317:12 3.89037e-06
32 *192:16 *338:8 0
33 *192:16 *341:10 0
34 *192:16 *792:25 1.12894e-06
35 *192:29 *339:8 0
36 *192:29 *341:10 0
37 *192:29 *787:17 1.89962e-06
38 *192:29 *792:25 2.25787e-06
39 *192:38 *787:6 5.40225e-06
40 *192:38 *787:17 3.68287e-06
41 *192:42 *289:53 1.22047e-05
42 *192:42 *307:14 2.659e-05
43 *192:42 *327:10 4.40246e-06
44 *192:42 *337:8 3.32579e-06
45 *192:42 *339:8 0
46 *192:42 *730:8 5.52807e-07
47 *192:42 *780:34 6.05751e-05
48 *192:42 *787:17 4.53987e-05
49 *192:42 *790:40 8.57828e-06
50 *192:42 *792:31 0
51 *1144:B *192:12 8.31096e-06
52 *176:21 *1153:A1 1.2768e-05
*RES
1 *1409:CON *192:8 38.3422 
2 *192:8 *192:10 17.2 
3 *192:10 *192:12 39.0422 
4 *192:12 *192:16 23.958 
5 *192:16 *1153:A1 38.1438 
6 *192:16 *192:29 26.2107 
7 *192:29 *1154:B 28.9662 
8 *192:29 *192:38 3.74377 
9 *192:38 *192:40 17.2 
10 *192:40 *192:42 51.2481 
11 *192:42 *192:44 17.2 
12 *192:44 *1142:B2 28.9662 
13 *192:44 *1140:C 20.9438 
14 *192:38 *1182:B 17.2 
*END

*D_NET *193 4.76545e-05
*CONN
*I *1563:A I *D BUFx3_ASAP7_75t_R
*I *1144:A I *D OR3x1_ASAP7_75t_R
*I *1409:SN O *D HAxp5_ASAP7_75t_R
*CAP
1 *1563:A 8.25926e-06
2 *1144:A 9.48575e-06
3 *1409:SN 1.13496e-06
4 *193:8 1.888e-05
5 *1144:A *672:10 0
6 *1563:A *1441:B 0
7 *1563:A *317:12 0
8 *177:8 *1144:A 0
9 *192:8 *1144:A 3.92018e-06
10 *192:8 *1563:A 1.26641e-06
11 *192:12 *1144:A 1.02506e-06
12 *192:12 *193:8 3.68287e-06
*RES
1 *1409:SN *193:8 35.4697 
2 *193:8 *1144:A 41.5511 
3 *193:8 *1563:A 40.0317 
*END

*D_NET *194 6.12305e-05
*CONN
*I *1031:A I *D INVx1_ASAP7_75t_R
*I *1410:CON O *D HAxp5_ASAP7_75t_R
*CAP
1 *1031:A 2.43411e-05
2 *1410:CON 2.43411e-05
3 *1031:A *195:10 1.25483e-05
*RES
1 *1410:CON *1031:A 45.6313 
*END

*D_NET *195 3.33459e-05
*CONN
*I *1032:A I *D INVx1_ASAP7_75t_R
*I *1410:SN O *D HAxp5_ASAP7_75t_R
*CAP
1 *1032:A 0
2 *1410:SN 1.03988e-05
3 *195:10 1.03988e-05
4 *195:10 *827:70 0
5 *1031:A *195:10 1.25483e-05
*RES
1 *1410:SN *195:10 42.6491 
2 *195:10 *1032:A 34.4 
*END

*D_NET *196 3.40528e-05
*CONN
*I *1099:A I *D INVx1_ASAP7_75t_R
*I *1411:CON O *D HAxp5_ASAP7_75t_R
*CAP
1 *1099:A 5.8257e-06
2 *1411:CON 5.8257e-06
3 *1099:A *197:10 1.56713e-06
4 *1099:A *411:10 1.56713e-06
5 *1099:A *433:12 1.92671e-05
*RES
1 *1411:CON *1099:A 41.3527 
*END

*D_NET *197 7.41312e-05
*CONN
*I *1100:A I *D INVx1_ASAP7_75t_R
*I *1411:SN O *D HAxp5_ASAP7_75t_R
*CAP
1 *1100:A 1.02639e-05
2 *1411:SN 2.15407e-05
3 *197:10 3.18047e-05
4 *1100:A *1358:B 1.95129e-06
5 *1100:A *455:10 5.19552e-07
6 *197:10 *411:10 0
7 *197:10 *433:12 1.51653e-06
8 *197:10 *455:10 0
9 *1080:A *1100:A 4.41457e-06
10 *1099:A *197:10 1.56713e-06
11 *90:14 *197:10 5.52807e-07
*RES
1 *1411:SN *197:10 47.0977 
2 *197:10 *1100:A 41.3527 
*END

*D_NET *198 7.98526e-05
*CONN
*I *891:A I *D INVx1_ASAP7_75t_R
*I *1412:CON O *D HAxp5_ASAP7_75t_R
*CAP
1 *891:A 1.82948e-05
2 *1412:CON 1.58395e-05
3 *198:8 3.41343e-05
4 *198:8 *1226:B 5.52264e-06
5 *198:8 *353:10 1.90342e-06
6 *198:8 *364:10 6.33206e-07
7 *198:8 *852:36 3.52473e-06
*RES
1 *1412:CON *198:8 47.916 
2 *198:8 *891:A 41.3527 
*END

*D_NET *199 0.000107012
*CONN
*I *892:A I *D INVx1_ASAP7_75t_R
*I *1412:SN O *D HAxp5_ASAP7_75t_R
*CAP
1 *892:A 0
2 *1412:SN 0
3 *199:12 3.29636e-05
4 *199:6 3.29636e-05
5 *199:12 *1248:A 0
6 *199:12 *1536:A 2.70503e-06
7 *199:12 *364:10 5.67747e-07
8 *199:12 *717:10 4.10928e-06
9 *199:12 *819:16 0
10 *199:12 *832:71 4.10928e-06
11 *199:12 *834:37 2.42729e-06
12 *199:12 *852:36 2.71662e-05
*RES
1 *1412:SN *199:6 34.4 
2 *199:6 *199:12 42.2874 
3 *199:12 *892:A 17.2 
*END

*D_NET *200 0.000114816
*CONN
*I *1294:A I *D INVx1_ASAP7_75t_R
*I *1413:CON O *D HAxp5_ASAP7_75t_R
*CAP
1 *1294:A 0
2 *1413:CON 4.79577e-06
3 *200:12 4.80436e-05
4 *200:8 5.28393e-05
5 *200:8 *1394:B 5.37866e-07
6 *200:8 *201:8 4.10928e-06
7 *200:8 *611:10 0
8 *200:12 *868:A 3.73144e-06
9 *200:12 *633:8 7.58265e-07
*RES
1 *1413:CON *200:8 38.9053 
2 *200:8 *200:12 38.0582 
3 *200:12 *1294:A 17.2 
*END

*D_NET *201 3.58639e-05
*CONN
*I *868:A I *D INVx1_ASAP7_75t_R
*I *1413:SN O *D HAxp5_ASAP7_75t_R
*CAP
1 *868:A 4.60863e-06
2 *1413:SN 5.54525e-06
3 *201:8 1.01539e-05
4 *868:A *633:8 7.63254e-07
5 *201:8 *1394:B 6.95214e-06
6 *201:8 *611:10 0
7 *200:8 *201:8 4.10928e-06
8 *200:12 *868:A 3.73144e-06
*RES
1 *1413:SN *201:8 40.0317 
2 *201:8 *868:A 38.1438 
*END

*D_NET *202 5.1196e-05
*CONN
*I *889:A I *D INVx1_ASAP7_75t_R
*I *1414:CON O *D HAxp5_ASAP7_75t_R
*CAP
1 *889:A 4.19594e-06
2 *1414:CON 1.71086e-05
3 *202:8 2.13045e-05
4 *889:A *387:16 0
5 *202:8 *1341:B 3.84449e-06
6 *202:8 *376:8 0
7 *57:10 *202:8 4.74248e-06
*RES
1 *1414:CON *202:8 47.3528 
2 *202:8 *889:A 36.0045 
*END

*D_NET *203 3.89659e-05
*CONN
*I *890:A I *D INVx1_ASAP7_75t_R
*I *1414:SN O *D HAxp5_ASAP7_75t_R
*CAP
1 *890:A 1.24124e-05
2 *1414:SN 5.50343e-06
3 *203:8 1.79158e-05
4 *890:A *1540:A 3.13426e-06
5 *203:8 *353:10 0
6 *203:8 *376:8 0
*RES
1 *1414:SN *203:8 37.779 
2 *203:8 *890:A 40.2831 
*END

*D_NET *204 4.99811e-05
*CONN
*I *1022:A I *D INVx1_ASAP7_75t_R
*I *1415:CON O *D HAxp5_ASAP7_75t_R
*CAP
1 *1022:A 2.3303e-05
2 *1415:CON 2.3303e-05
3 *1022:A *1288:A 2.61188e-06
4 *1022:A *548:10 7.63254e-07
*RES
1 *1415:CON *1022:A 47.7706 
*END

*D_NET *205 1.2778e-05
*CONN
*I *1288:A I *D INVx1_ASAP7_75t_R
*I *1415:SN O *D HAxp5_ASAP7_75t_R
*CAP
1 *1288:A 5.08306e-06
2 *1415:SN 5.08306e-06
3 *1022:A *1288:A 2.61188e-06
*RES
1 *1415:SN *1288:A 37.0741 
*END

*D_NET *206 7.4962e-05
*CONN
*I *1071:A I *D INVx1_ASAP7_75t_R
*I *1416:CON O *D HAxp5_ASAP7_75t_R
*CAP
1 *1071:A 1.78765e-05
2 *1416:CON 6.88489e-06
3 *206:8 2.47613e-05
4 *1071:A *522:8 1.04475e-06
5 *1071:A *534:16 2.12481e-06
6 *1071:A *560:10 5.41446e-06
7 *1071:A *573:10 2.61188e-06
8 *206:8 *1374:A 0
9 *206:8 *207:10 1.36943e-05
10 *206:8 *534:10 0
11 *206:8 *560:10 5.49212e-07
*RES
1 *1416:CON *206:8 41.158 
2 *206:8 *1071:A 46.701 
*END

*D_NET *207 4.09487e-05
*CONN
*I *1072:A I *D INVx1_ASAP7_75t_R
*I *1416:SN O *D HAxp5_ASAP7_75t_R
*CAP
1 *1072:A 0
2 *1416:SN 1.36272e-05
3 *207:10 1.36272e-05
4 *207:10 *1374:A 0
5 *206:8 *207:10 1.36943e-05
*RES
1 *1416:SN *207:10 44.9018 
2 *207:10 *1072:A 34.4 
*END

*D_NET *208 8.80686e-05
*CONN
*I *1303:A I *D INVx1_ASAP7_75t_R
*I *1417:CON O *D HAxp5_ASAP7_75t_R
*CAP
1 *1303:A 4.21875e-06
2 *1417:CON 1.30801e-05
3 *208:18 1.18769e-05
4 *208:10 2.07383e-05
5 *208:10 *1417:B 3.17561e-05
6 *208:10 *512:8 4.46363e-06
7 *208:18 *350:58 0
8 *208:18 *512:8 1.93482e-06
*RES
1 *1417:CON *208:10 44.018 
2 *208:10 *208:18 36.7885 
3 *208:18 *1303:A 36.0045 
*END

*D_NET *209 5.98942e-05
*CONN
*I *1169:A I *D INVx1_ASAP7_75t_R
*I *1417:SN O *D HAxp5_ASAP7_75t_R
*CAP
1 *1169:A 0
2 *1417:SN 2.74567e-05
3 *209:10 2.74567e-05
4 *209:10 *1417:B 3.71555e-06
5 *209:10 *559:8 0
6 *209:10 *707:20 1.26529e-06
7 *209:10 *818:10 0
*RES
1 *1417:SN *209:10 49.9703 
2 *209:10 *1169:A 34.4 
*END

*D_NET *210 2.28497e-05
*CONN
*I *1165:A I *D INVx1_ASAP7_75t_R
*I *1418:CON O *D HAxp5_ASAP7_75t_R
*CAP
1 *1165:A 8.75347e-06
2 *1418:CON 8.75347e-06
3 *1165:A *211:6 5.34278e-06
*RES
1 *1418:CON *1165:A 40.2831 
*END

*D_NET *211 0.000107412
*CONN
*I *1166:A I *D INVx1_ASAP7_75t_R
*I *1418:SN O *D HAxp5_ASAP7_75t_R
*CAP
1 *1166:A 0
2 *1418:SN 2.04258e-05
3 *211:12 1.78873e-05
4 *211:6 3.83131e-05
5 *211:6 *544:8 1.4252e-05
6 *211:6 *822:105 2.12481e-06
7 *211:12 *1343:A 5.37866e-07
8 *211:12 *1343:B 0
9 *211:12 *1595:A 0
10 *211:12 *794:21 0
11 *211:12 *805:10 7.89539e-06
12 *211:12 *805:12 6.33206e-07
13 *1165:A *211:6 5.34278e-06
*RES
1 *1418:SN *211:6 33.7796 
2 *211:6 *211:12 49.6055 
3 *211:12 *1166:A 17.2 
*END

*D_NET *212 5.2681e-05
*CONN
*I *895:A I *D INVx1_ASAP7_75t_R
*I *1419:CON O *D HAxp5_ASAP7_75t_R
*CAP
1 *895:A 0
2 *1419:CON 2.55569e-05
3 *212:6 2.55569e-05
4 *212:6 *213:10 1.56713e-06
*RES
1 *1419:CON *212:6 33.7796 
2 *212:6 *895:A 17.2 
*END

*D_NET *213 3.47768e-05
*CONN
*I *896:A I *D INVx1_ASAP7_75t_R
*I *1419:SN O *D HAxp5_ASAP7_75t_R
*CAP
1 *896:A 0
2 *1419:SN 1.66048e-05
3 *213:10 1.66048e-05
4 *213:10 *520:10 0
5 *212:6 *213:10 1.56713e-06
*RES
1 *1419:SN *213:10 42.5924 
2 *213:10 *896:A 34.4 
*END

*D_NET *214 1.11565e-05
*CONN
*I *875:A I *D INVx1_ASAP7_75t_R
*I *1420:CON O *D HAxp5_ASAP7_75t_R
*CAP
1 *875:A 0
2 *1420:CON 5.57826e-06
3 *214:8 5.57826e-06
*RES
1 *1420:CON *214:8 38.9053 
2 *214:8 *875:A 34.4 
*END

*D_NET *215 8.15436e-05
*CONN
*I *1293:A I *D INVx1_ASAP7_75t_R
*I *1420:SN O *D HAxp5_ASAP7_75t_R
*CAP
1 *1293:A 3.43587e-05
2 *1420:SN 5.61502e-06
3 *215:8 3.99737e-05
4 *1293:A *733:10 1.59615e-06
*RES
1 *1420:SN *215:8 37.779 
2 *215:8 *1293:A 48.8403 
*END

*D_NET *216 6.11453e-05
*CONN
*I *979:A I *D INVx1_ASAP7_75t_R
*I *1421:CON O *D HAxp5_ASAP7_75t_R
*CAP
1 *979:A 0
2 *1421:CON 1.69415e-05
3 *216:10 1.69415e-05
4 *216:10 *217:10 2.69759e-05
5 *978:A *216:10 2.86376e-07
*RES
1 *1421:CON *216:10 45.8581 
2 *216:10 *979:A 34.4 
*END

*D_NET *217 0.000158725
*CONN
*I *1286:A I *D INVx1_ASAP7_75t_R
*I *1421:SN O *D HAxp5_ASAP7_75t_R
*CAP
1 *1286:A 0
2 *1421:SN 1.76974e-05
3 *217:14 2.51783e-05
4 *217:10 4.28757e-05
5 *217:10 *1345:A 1.12894e-06
6 *217:14 *568:8 3.96906e-05
7 *217:14 *595:10 5.17782e-06
8 *216:10 *217:10 2.69759e-05
*RES
1 *1421:SN *217:10 44.8451 
2 *217:10 *217:14 34.8492 
3 *217:14 *1286:A 17.2 
*END

*D_NET *218 7.17881e-05
*CONN
*I *1161:A I *D INVx1_ASAP7_75t_R
*I *1422:CON O *D HAxp5_ASAP7_75t_R
*CAP
1 *1161:A 3.3083e-05
2 *1422:CON 3.3083e-05
3 *1161:A *219:10 5.62196e-06
4 *1161:A *630:14 0
*RES
1 *1422:CON *1161:A 48.8403 
*END

*D_NET *219 2.46739e-05
*CONN
*I *1162:A I *D INVx1_ASAP7_75t_R
*I *1422:SN O *D HAxp5_ASAP7_75t_R
*CAP
1 *1162:A 0
2 *1422:SN 9.52595e-06
3 *219:10 9.52595e-06
4 *1102:A *219:10 0
5 *1161:A *219:10 5.62196e-06
*RES
1 *1422:SN *219:10 40.5098 
2 *219:10 *1162:A 34.4 
*END

*D_NET *220 8.81318e-05
*CONN
*I *873:A I *D INVx1_ASAP7_75t_R
*I *1423:CON O *D HAxp5_ASAP7_75t_R
*CAP
1 *873:A 0
2 *1423:CON 3.79599e-05
3 *220:6 3.79599e-05
4 *220:6 *1423:B 9.9223e-06
5 *220:6 *221:10 2.28976e-06
*RES
1 *1423:CON *220:6 43.4064 
2 *220:6 *873:A 17.2 
*END

*D_NET *221 3.34569e-05
*CONN
*I *874:A I *D INVx1_ASAP7_75t_R
*I *1423:SN O *D HAxp5_ASAP7_75t_R
*CAP
1 *874:A 0
2 *1423:SN 1.48253e-05
3 *221:10 1.48253e-05
4 *221:10 *1423:B 1.51653e-06
5 *220:6 *221:10 2.28976e-06
*RES
1 *1423:SN *221:10 42.5924 
2 *221:10 *874:A 34.4 
*END

*D_NET *222 6.42334e-05
*CONN
*I *1033:A I *D INVx1_ASAP7_75t_R
*I *1424:CON O *D HAxp5_ASAP7_75t_R
*CAP
1 *1033:A 8.7809e-06
2 *1424:CON 2.09851e-05
3 *222:8 2.9766e-05
4 *222:8 *223:8 4.70139e-06
*RES
1 *1424:CON *222:8 47.7706 
2 *222:8 *1033:A 40.0317 
*END

*D_NET *223 6.68749e-05
*CONN
*I *1034:A I *D INVx1_ASAP7_75t_R
*I *1424:SN O *D HAxp5_ASAP7_75t_R
*CAP
1 *1034:A 1.42501e-05
2 *1424:SN 9.20712e-06
3 *223:8 2.34573e-05
4 *1034:A *698:8 1.5259e-05
5 *222:8 *223:8 4.70139e-06
*RES
1 *1424:SN *223:8 39.2134 
2 *223:8 *1034:A 46.2265 
*END

*D_NET *224 0.000111759
*CONN
*I *893:A I *D INVx1_ASAP7_75t_R
*I *1425:CON O *D HAxp5_ASAP7_75t_R
*CAP
1 *893:A 0
2 *1425:CON 0
3 *224:6 4.98159e-05
4 *224:4 4.98159e-05
5 *224:6 *1425:A 9.9223e-06
6 *1074:A *224:6 2.20493e-06
*RES
1 *1425:CON *224:4 17.2 
2 *224:4 *224:6 34.2288 
3 *224:6 *893:A 17.2 
*END

*D_NET *225 4.22234e-05
*CONN
*I *894:A I *D INVx1_ASAP7_75t_R
*I *1425:SN O *D HAxp5_ASAP7_75t_R
*CAP
1 *894:A 0
2 *1425:SN 1.50512e-05
3 *225:10 1.50512e-05
4 *225:10 *1425:A 1.21211e-05
*RES
1 *1425:SN *225:10 42.5924 
2 *225:10 *894:A 34.4 
*END

*D_NET *226 3.68456e-05
*CONN
*I *1261:A I *D INVx1_ASAP7_75t_R
*I *1426:CON O *D HAxp5_ASAP7_75t_R
*CAP
1 *1261:A 1.72779e-05
2 *1426:CON 1.72779e-05
3 *1261:A *227:10 2.28976e-06
*RES
1 *1426:CON *1261:A 45.0965 
*END

*D_NET *227 2.06822e-05
*CONN
*I *1262:A I *D INVx1_ASAP7_75t_R
*I *1426:SN O *D HAxp5_ASAP7_75t_R
*CAP
1 *1262:A 0
2 *1426:SN 9.1962e-06
3 *227:10 9.1962e-06
4 *1261:A *227:10 2.28976e-06
*RES
1 *1426:SN *227:10 39.3835 
2 *227:10 *1262:A 34.4 
*END

*D_NET *228 2.52164e-05
*CONN
*I *987:A I *D INVx1_ASAP7_75t_R
*I *1427:CON O *D HAxp5_ASAP7_75t_R
*CAP
1 *987:A 9.17356e-06
2 *1427:CON 9.17356e-06
3 *987:A *229:10 6.86929e-06
*RES
1 *1427:CON *987:A 41.3527 
*END

*D_NET *229 3.44961e-05
*CONN
*I *1285:A I *D INVx1_ASAP7_75t_R
*I *1427:SN O *D HAxp5_ASAP7_75t_R
*CAP
1 *1285:A 0
2 *1427:SN 1.38134e-05
3 *229:10 1.38134e-05
4 *987:A *229:10 6.86929e-06
*RES
1 *1427:SN *229:10 42.5924 
2 *229:10 *1285:A 34.4 
*END

*D_NET *230 8.1431e-05
*CONN
*I *1002:A I *D INVx1_ASAP7_75t_R
*I *1428:CON O *D HAxp5_ASAP7_75t_R
*CAP
1 *1002:A 0
2 *1428:CON 3.94517e-05
3 *230:6 3.94517e-05
4 *230:6 *231:10 2.52755e-06
*RES
1 *1428:CON *230:6 34.8492 
2 *230:6 *1002:A 17.2 
*END

*D_NET *231 4.21294e-05
*CONN
*I *1003:A I *D INVx1_ASAP7_75t_R
*I *1428:SN O *D HAxp5_ASAP7_75t_R
*CAP
1 *1003:A 0
2 *1428:SN 1.98009e-05
3 *231:10 1.98009e-05
4 *230:6 *231:10 2.52755e-06
*RES
1 *1428:SN *231:10 48.1674 
2 *231:10 *1003:A 34.4 
*END

*D_NET *232 9.13273e-05
*CONN
*I *869:A I *D INVx1_ASAP7_75t_R
*I *1429:CON O *D HAxp5_ASAP7_75t_R
*CAP
1 *869:A 0
2 *1429:CON 1.70072e-05
3 *232:14 2.36793e-05
4 *232:10 4.06865e-05
5 *232:10 *674:18 0
6 *232:14 *674:12 9.95417e-06
*RES
1 *1429:CON *232:10 44.9585 
2 *232:10 *232:14 33.7796 
3 *232:14 *869:A 17.2 
*END

*D_NET *233 1.30917e-05
*CONN
*I *870:A I *D INVx1_ASAP7_75t_R
*I *1429:SN O *D HAxp5_ASAP7_75t_R
*CAP
1 *870:A 6.54584e-06
2 *1429:SN 6.54584e-06
*RES
1 *1429:SN *870:A 37.0741 
*END

*D_NET *234 0.000124703
*CONN
*I *871:A I *D INVx1_ASAP7_75t_R
*I *1430:CON O *D HAxp5_ASAP7_75t_R
*CAP
1 *871:A 0
2 *1430:CON 3.95288e-05
3 *234:14 1.95883e-05
4 *234:6 5.9117e-05
5 *234:6 *235:10 2.28976e-06
6 *234:14 *530:29 0
7 *234:14 *644:6 4.17901e-06
*RES
1 *1430:CON *234:6 41.2671 
2 *234:6 *234:14 45.9714 
3 *234:14 *871:A 17.2 
*END

*D_NET *235 3.48323e-05
*CONN
*I *872:A I *D INVx1_ASAP7_75t_R
*I *1430:SN O *D HAxp5_ASAP7_75t_R
*CAP
1 *872:A 0
2 *1430:SN 1.62713e-05
3 *235:10 1.62713e-05
4 *235:10 *753:8 0
5 *234:6 *235:10 2.28976e-06
*RES
1 *1430:SN *235:10 42.5924 
2 *235:10 *872:A 34.4 
*END

*D_NET *236 0.000201502
*CONN
*I *1572:A I *D BUFx3_ASAP7_75t_R
*I *1115:B I *D OR2x2_ASAP7_75t_R
*I *1431:CON O *D HAxp5_ASAP7_75t_R
*CAP
1 *1572:A 1.07712e-05
2 *1115:B 0
3 *1431:CON 1.21061e-06
4 *236:39 4.71532e-05
5 *236:24 3.56108e-05
6 *236:14 8.00077e-05
7 *236:8 9.22551e-06
8 *1572:A *1090:D 3.16603e-07
9 *1572:A *290:18 0
10 *236:8 *237:8 3.09718e-06
11 *236:24 *685:8 0
12 *236:39 *300:12 1.24672e-08
13 *236:39 *843:24 1.40963e-05
*RES
1 *1431:CON *236:8 35.4325 
2 *236:8 *236:14 31.6514 
3 *236:14 *236:24 47.0362 
4 *236:24 *1115:B 34.4 
5 *236:14 *236:39 45.5037 
6 *236:39 *1572:A 40.8764 
*END

*D_NET *237 3.67016e-05
*CONN
*I *1630:A I *D BUFx3_ASAP7_75t_R
*I *1431:SN O *D HAxp5_ASAP7_75t_R
*CAP
1 *1630:A 2.71613e-06
2 *1431:SN 1.28892e-05
3 *237:8 1.56053e-05
4 *1630:A *310:10 2.12481e-06
5 *237:8 *1431:B 0
6 *237:8 *840:12 2.68933e-07
7 *237:8 *840:57 0
8 *189:8 *237:8 0
9 *236:8 *237:8 3.09718e-06
*RES
1 *1431:SN *237:8 44.537 
2 *237:8 *1630:A 36.0045 
*END

*D_NET *238 1.42776e-05
*CONN
*I *954:A I *D INVx1_ASAP7_75t_R
*I *1432:CON O *D HAxp5_ASAP7_75t_R
*CAP
1 *954:A 0
2 *1432:CON 4.14928e-06
3 *238:8 4.14928e-06
4 *238:8 *1351:CI 0
5 *238:8 *711:51 5.97901e-06
*RES
1 *1432:CON *238:8 38.9053 
2 *238:8 *954:A 34.4 
*END

*D_NET *239 1.10087e-05
*CONN
*I *955:A I *D INVx1_ASAP7_75t_R
*I *1432:SN O *D HAxp5_ASAP7_75t_R
*CAP
1 *955:A 5.50436e-06
2 *1432:SN 5.50436e-06
*RES
1 *1432:SN *955:A 37.0741 
*END

*D_NET *240 0.000102323
*CONN
*I *1106:A I *D INVx1_ASAP7_75t_R
*I *1433:CON O *D HAxp5_ASAP7_75t_R
*CAP
1 *1106:A 0
2 *1433:CON 2.78615e-05
3 *240:6 2.78615e-05
4 *240:6 *1107:A 4.65997e-05
*RES
1 *1433:CON *240:6 36.9885 
2 *240:6 *1106:A 17.2 
*END

*D_NET *241 8.25742e-05
*CONN
*I *1107:A I *D INVx1_ASAP7_75t_R
*I *1433:SN O *D HAxp5_ASAP7_75t_R
*CAP
1 *1107:A 1.79872e-05
2 *1433:SN 1.79872e-05
3 *240:6 *1107:A 4.65997e-05
*RES
1 *1433:SN *1107:A 47.7706 
*END

*D_NET *242 0.000122776
*CONN
*I *1287:A I *D INVx1_ASAP7_75t_R
*I *1434:CON O *D HAxp5_ASAP7_75t_R
*CAP
1 *1287:A 0
2 *1434:CON 1.2545e-05
3 *242:14 2.78587e-05
4 *242:8 4.04037e-05
5 *242:8 *702:27 1.99018e-05
6 *242:14 *243:10 0
7 *242:14 *510:10 2.28976e-06
8 *242:14 *702:31 1.12144e-06
9 *242:14 *715:97 2.03526e-06
10 *242:14 *715:101 1.29637e-05
11 *1168:A *242:14 3.65663e-06
*RES
1 *1434:CON *242:8 43.492 
2 *242:8 *242:14 36.7938 
3 *242:14 *1287:A 17.2 
*END

*D_NET *243 0.000130552
*CONN
*I *1160:A I *D INVx1_ASAP7_75t_R
*I *1434:SN O *D HAxp5_ASAP7_75t_R
*CAP
1 *1160:A 6.70903e-06
2 *1434:SN 0
3 *243:10 3.64978e-05
4 *243:6 2.97888e-05
5 *1160:A *702:48 1.07377e-06
6 *243:10 *464:12 1.16555e-05
7 *243:10 *702:27 1.12894e-06
8 *243:10 *702:31 6.04134e-06
9 *243:10 *702:44 2.57989e-05
10 *243:10 *713:47 0
11 *243:10 *715:97 1.18575e-05
12 *243:10 *715:101 0
13 *242:14 *243:10 0
*RES
1 *1434:SN *243:6 34.4 
2 *243:6 *243:10 48.1741 
3 *243:10 *1160:A 19.8741 
*END

*D_NET *244 4.34397e-05
*CONN
*I *1172:A I *D INVx1_ASAP7_75t_R
*I *1435:CON O *D HAxp5_ASAP7_75t_R
*CAP
1 *1172:A 0
2 *1435:CON 1.74412e-05
3 *244:8 1.74412e-05
4 *244:8 *349:56 0
5 *244:8 *844:44 3.02396e-06
6 *5:22 *244:8 5.53329e-06
*RES
1 *1435:CON *244:8 47.3528 
2 *244:8 *1172:A 34.4 
*END

*D_NET *245 9.93041e-05
*CONN
*I *1173:A I *D INVx1_ASAP7_75t_R
*I *1435:SN O *D HAxp5_ASAP7_75t_R
*CAP
1 *1173:A 0
2 *1435:SN 8.25596e-06
3 *245:12 3.75259e-05
4 *245:8 4.57819e-05
5 *1170:A *245:8 3.55124e-06
6 *4:12 *245:12 4.18905e-06
*RES
1 *1435:SN *245:8 40.0317 
2 *245:8 *245:12 35.9189 
3 *245:12 *1173:A 17.2 
*END

*D_NET *246 2.11658e-05
*CONN
*I *1133:A I *D INVx1_ASAP7_75t_R
*I *1436:CON O *D HAxp5_ASAP7_75t_R
*CAP
1 *1133:A 0
2 *1436:CON 3.73575e-06
3 *246:8 3.73575e-06
4 *246:8 *247:8 1.36943e-05
*RES
1 *1436:CON *246:8 38.9053 
2 *246:8 *1133:A 34.4 
*END

*D_NET *247 6.67643e-05
*CONN
*I *1134:A I *D INVx1_ASAP7_75t_R
*I *1436:SN O *D HAxp5_ASAP7_75t_R
*CAP
1 *1134:A 1.30578e-05
2 *1436:SN 1.1056e-05
3 *247:8 2.41138e-05
4 *247:8 *1344:B 3.29527e-06
5 *247:8 *629:8 0
6 *63:8 *247:8 7.84037e-07
7 *64:9 *1134:A 7.63254e-07
8 *246:8 *247:8 1.36943e-05
*RES
1 *1436:SN *247:8 45.6633 
2 *247:8 *1134:A 42.4224 
*END

*D_NET *248 6.09972e-05
*CONN
*I *1103:A I *D INVx1_ASAP7_75t_R
*I *1437:CON O *D HAxp5_ASAP7_75t_R
*CAP
1 *1103:A 1.67992e-05
2 *1437:CON 3.63325e-06
3 *248:8 2.04324e-05
4 *1103:A *249:10 1.06652e-05
5 *1103:A *598:10 6.39911e-06
6 *1298:A *1103:A 2.30405e-06
7 *58:9 *248:8 7.64042e-07
*RES
1 *1437:CON *248:8 37.2158 
2 *248:8 *1103:A 44.5617 
*END

*D_NET *249 5.91325e-05
*CONN
*I *1104:A I *D INVx1_ASAP7_75t_R
*I *1437:SN O *D HAxp5_ASAP7_75t_R
*CAP
1 *1104:A 0
2 *1437:SN 1.94136e-05
3 *249:10 1.94136e-05
4 *249:10 *598:10 9.64014e-06
5 *1103:A *249:10 1.06652e-05
*RES
1 *1437:SN *249:10 48.9006 
2 *249:10 *1104:A 34.4 
*END

*D_NET *250 0.000342541
*CONN
*I *1583:A I *D BUFx3_ASAP7_75t_R
*I *1152:A I *D INVx1_ASAP7_75t_R
*I *1438:CON O *D HAxp5_ASAP7_75t_R
*CAP
1 *1583:A 2.11131e-05
2 *1152:A 0
3 *1438:CON 1.5103e-06
4 *250:40 2.29785e-05
5 *250:36 9.28098e-05
6 *250:26 0.000121479
7 *250:16 5.57477e-05
8 *250:8 2.6723e-05
9 *250:8 *1378:CI 1.79289e-07
*RES
1 *1438:CON *250:8 35.4325 
2 *250:8 *250:16 38.4184 
3 *250:16 *250:26 36.4235 
4 *250:26 *250:36 46.5401 
5 *250:36 *250:40 18.2325 
6 *250:40 *1152:A 34.4 
7 *250:40 *1583:A 47.3775 
*END

*D_NET *251 0.000103085
*CONN
*I *960:A I *D INVx1_ASAP7_75t_R
*I *1438:SN O *D HAxp5_ASAP7_75t_R
*CAP
1 *960:A 0
2 *1438:SN 4.59717e-05
3 *251:12 5.00618e-06
4 *251:6 5.09779e-05
5 *251:12 *673:8 1.12894e-06
6 *251:12 *688:10 0
*RES
1 *1438:SN *251:6 35.9189 
2 *251:6 *251:12 37.779 
3 *251:12 *960:A 17.2 
*END

*D_NET *252 0.000182324
*CONN
*I *1571:A I *D BUFx3_ASAP7_75t_R
*I *1125:A1 I *D OA21x2_ASAP7_75t_R
*I *1439:CON O *D HAxp5_ASAP7_75t_R
*CAP
1 *1571:A 0
2 *1125:A1 0
3 *1439:CON 3.37925e-06
4 *252:23 5.88749e-05
5 *252:12 7.07806e-05
6 *252:8 1.52849e-05
7 *252:8 *257:10 0
8 *252:8 *257:23 0
9 *252:12 *253:8 0
10 *252:23 *1125:A2 3.68287e-06
11 *252:23 *1145:A 1.25483e-05
12 *252:23 *1551:A 1.35961e-06
13 *252:23 *253:8 0
14 *252:23 *256:14 2.03526e-06
15 *252:23 *257:34 4.43244e-06
16 *252:23 *320:27 0
17 *252:23 *761:10 9.94583e-06
18 *252:23 *764:8 0
*RES
1 *1439:CON *252:8 37.2158 
2 *252:8 *252:12 22.5483 
3 *252:12 *1125:A1 17.2 
4 *252:12 *252:23 48.3369 
5 *252:23 *1571:A 34.4 
*END

*D_NET *253 0.000192808
*CONN
*I *1570:A I *D BUFx3_ASAP7_75t_R
*I *1122:A I *D OR2x2_ASAP7_75t_R
*I *1439:SN O *D HAxp5_ASAP7_75t_R
*CAP
1 *1570:A 2.2085e-05
2 *1122:A 0
3 *1439:SN 2.26498e-05
4 *253:12 3.28314e-05
5 *253:8 3.33962e-05
6 *1570:A *257:34 3.48408e-05
7 *1570:A *257:38 1.11189e-05
8 *253:8 *1125:A2 2.52755e-07
9 *253:12 *256:14 1.182e-05
10 *253:12 *257:10 6.61222e-06
11 *253:12 *257:23 1.1648e-05
12 *253:12 *317:12 2.25787e-06
13 *253:12 *317:21 3.29527e-06
14 *252:12 *253:8 0
15 *252:23 *253:8 0
*RES
1 *1439:SN *253:8 44.5617 
2 *253:8 *253:12 30.716 
3 *253:12 *1122:A 17.2 
4 *253:12 *1570:A 34.8492 
*END

*D_NET *254 0.000202867
*CONN
*I *1041:B I *D OA21x2_ASAP7_75t_R
*I *1048:C I *D OR3x1_ASAP7_75t_R
*I *1043:B I *D OA21x2_ASAP7_75t_R
*I *1440:CON O *D HAxp5_ASAP7_75t_R
*CAP
1 *1041:B 2.13595e-06
2 *1048:C 1.69379e-05
3 *1043:B 0
4 *1440:CON 8.37709e-06
5 *254:29 4.00661e-05
6 *254:20 7.28445e-06
7 *254:12 5.43604e-05
8 *254:8 3.44608e-05
9 *1041:B *278:14 2.20343e-06
10 *1041:B *847:10 2.35518e-06
11 *1048:C *278:14 6.46212e-06
12 *1048:C *280:20 2.65972e-05
13 *1048:C *282:10 0
14 *1048:C *771:19 0
15 *1048:C *847:10 1.62681e-06
16 *254:8 *276:8 0
17 *254:8 *676:8 0
18 *254:20 *1041:A2 0
19 *254:20 *278:14 0
*RES
1 *1440:CON *254:8 40.1255 
2 *254:8 *254:12 28.6712 
3 *254:12 *254:20 38.7264 
4 *254:20 *1043:B 17.2 
5 *254:12 *254:29 24.126 
6 *254:29 *1048:C 49.6427 
7 *254:29 *1041:B 37.122 
*END

*D_NET *255 8.26037e-05
*CONN
*I *1043:A1 I *D OA21x2_ASAP7_75t_R
*I *1046:B I *D OR3x1_ASAP7_75t_R
*I *1647:A I *D BUFx3_ASAP7_75t_R
*I *1440:SN O *D HAxp5_ASAP7_75t_R
*CAP
1 *1043:A1 8.42026e-06
2 *1046:B 1.72595e-05
3 *1647:A 0
4 *1440:SN 3.39041e-06
5 *255:15 2.71644e-05
6 *255:6 4.87511e-06
7 *1043:A1 *276:8 3.95845e-06
8 *1046:B *1046:C 6.92634e-06
9 *255:6 *276:12 5.19475e-06
10 *255:15 *276:12 5.41446e-06
*RES
1 *1440:SN *255:6 19.8741 
2 *255:6 *1647:A 17.2 
3 *255:6 *255:15 18.8045 
4 *255:15 *1046:B 47.1544 
5 *255:15 *1043:A1 40.0317 
*END

*D_NET *256 0.000103157
*CONN
*I *1577:A I *D BUFx3_ASAP7_75t_R
*I *1125:B I *D OA21x2_ASAP7_75t_R
*I *1441:CON O *D HAxp5_ASAP7_75t_R
*CAP
1 *1577:A 9.61058e-06
2 *1125:B 0
3 *1441:CON 9.06357e-06
4 *256:14 1.20923e-05
5 *256:6 3.07664e-05
6 *1577:A *320:14 3.1923e-06
7 *1577:A *773:12 4.24961e-06
8 *256:6 *257:10 1.56713e-06
9 *256:14 *317:12 8.8135e-06
10 *256:14 *320:10 9.94583e-06
11 *252:23 *256:14 2.03526e-06
12 *253:12 *256:14 1.182e-05
*RES
1 *1441:CON *256:6 23.0831 
2 *256:6 *256:14 46.1415 
3 *256:14 *1125:B 17.2 
4 *256:6 *1577:A 23.6179 
*END

*D_NET *257 0.000241321
*CONN
*I *1569:A I *D BUFx3_ASAP7_75t_R
*I *1122:B I *D OR2x2_ASAP7_75t_R
*I *1125:A2 I *D OA21x2_ASAP7_75t_R
*I *1441:SN O *D HAxp5_ASAP7_75t_R
*CAP
1 *1569:A 0
2 *1122:B 0
3 *1125:A2 1.23529e-06
4 *1441:SN 1.32991e-05
5 *257:38 2.50949e-05
6 *257:34 5.50133e-05
7 *257:23 4.04666e-05
8 *257:10 2.50826e-05
9 *257:34 *1551:A 4.88493e-06
10 *257:38 *780:30 2.0895e-06
11 *1570:A *257:34 3.48408e-05
12 *1570:A *257:38 1.11189e-05
13 *252:8 *257:10 0
14 *252:8 *257:23 0
15 *252:23 *1125:A2 3.68287e-06
16 *252:23 *257:34 4.43244e-06
17 *253:8 *1125:A2 2.52755e-07
18 *253:12 *257:10 6.61222e-06
19 *253:12 *257:23 1.1648e-05
20 *256:6 *257:10 1.56713e-06
*RES
1 *1441:SN *257:10 43.8888 
2 *257:10 *1125:A2 35.4697 
3 *257:10 *257:23 27.337 
4 *257:23 *1122:B 17.2 
5 *257:23 *257:34 33.4431 
6 *257:34 *257:38 34.3144 
7 *257:38 *1569:A 17.2 
*END

*D_NET *276 0.000232753
*CONN
*I *1041:A2 I *D OA21x2_ASAP7_75t_R
*I *1049:A1 I *D OA211x2_ASAP7_75t_R
*I *1040:Y O *D OA21x2_ASAP7_75t_R
*CAP
1 *1041:A2 6.88213e-06
2 *1049:A1 0
3 *1040:Y 4.42768e-06
4 *276:20 2.03552e-05
5 *276:14 2.72373e-05
6 *276:12 3.71322e-05
7 *276:8 4.15598e-05
8 *1041:A2 *278:8 1.35684e-06
9 *1041:A2 *278:14 1.63121e-05
10 *1041:A2 *857:14 4.10928e-06
11 *276:12 *1637:A 5.19552e-07
12 *276:12 *857:6 2.52755e-06
13 *276:20 *1049:B 6.53466e-06
14 *276:20 *1637:A 3.56177e-06
15 *276:20 *278:14 8.06436e-06
16 *276:20 *280:20 3.39864e-05
17 *276:20 *857:14 3.61852e-06
18 *1043:A1 *276:8 3.95845e-06
19 *254:8 *276:8 0
20 *254:20 *1041:A2 0
21 *255:6 *276:12 5.19475e-06
22 *255:15 *276:12 5.41446e-06
*RES
1 *1040:Y *276:8 37.779 
2 *276:8 *276:12 33.7796 
3 *276:12 *276:14 17.2 
4 *276:14 *276:20 35.5258 
5 *276:20 *1049:A1 17.2 
6 *276:14 *1041:A2 41.1013 
*END

*D_NET *277 3.82811e-05
*CONN
*I *1042:A I *D XOR2x2_ASAP7_75t_R
*I *1041:Y O *D OA21x2_ASAP7_75t_R
*CAP
1 *1042:A 1.91406e-05
2 *1041:Y 1.91406e-05
*RES
1 *1041:Y *1042:A 46.1661 
*END

*D_NET *278 0.000333358
*CONN
*I *1052:A1 I *D OA21x2_ASAP7_75t_R
*I *1060:A1 I *D OA211x2_ASAP7_75t_R
*I *1044:A2 I *D OA21x2_ASAP7_75t_R
*I *1043:Y O *D OA21x2_ASAP7_75t_R
*CAP
1 *1052:A1 6.26761e-06
2 *1060:A1 1.63142e-05
3 *1044:A2 0
4 *1043:Y 1.03882e-05
5 *278:25 5.33149e-05
6 *278:14 6.08475e-05
7 *278:8 4.05027e-05
8 *1052:A1 *284:22 4.41457e-06
9 *1060:A1 *281:22 4.45472e-06
10 *1060:A1 *284:8 8.33296e-06
11 *1060:A1 *284:22 3.32579e-06
12 *278:8 *857:14 5.22376e-07
13 *278:14 *1048:A 4.83862e-06
14 *278:14 *1566:A 0
15 *278:14 *280:20 3.94217e-05
16 *278:14 *771:15 4.41457e-06
17 *278:14 *775:39 1.95451e-05
18 *278:14 *821:8 2.83874e-07
19 *278:14 *847:10 0
20 *278:14 *857:14 5.79724e-07
21 *278:25 *281:14 0
22 *278:25 *284:8 9.94583e-06
23 *278:25 *821:14 0
24 *1041:A2 *278:8 1.35684e-06
25 *1041:A2 *278:14 1.63121e-05
26 *1041:B *278:14 2.20343e-06
27 *1044:B *278:14 1.12439e-05
28 *1048:C *278:14 6.46212e-06
29 *180:12 *1060:A1 0
30 *180:12 *278:25 0
31 *254:20 *278:14 0
32 *276:20 *278:14 8.06436e-06
*RES
1 *1043:Y *278:8 40.2831 
2 *278:8 *278:14 48.5672 
3 *278:14 *1044:A2 17.2 
4 *278:14 *278:25 39.7266 
5 *278:25 *1060:A1 47.2678 
6 *278:25 *1052:A1 37.609 
*END

*D_NET *279 4.74669e-05
*CONN
*I *1045:B I *D XOR2x2_ASAP7_75t_R
*I *1044:Y O *D OA21x2_ASAP7_75t_R
*CAP
1 *1045:B 2.37335e-05
2 *1044:Y 2.37335e-05
3 *1045:B *771:15 0
*RES
1 *1044:Y *1045:B 44.5617 
*END

*D_NET *280 0.000202439
*CONN
*I *1049:A2 I *D OA211x2_ASAP7_75t_R
*I *1046:Y O *D OR3x1_ASAP7_75t_R
*CAP
1 *1049:A2 0
2 *1046:Y 6.40195e-07
3 *280:20 2.14021e-05
4 *280:14 5.01768e-05
5 *280:8 2.94148e-05
6 *280:8 *821:46 0
7 *280:20 *1566:A 1.49407e-08
8 *280:20 *281:38 0
9 *280:20 *282:10 0
10 *1048:C *280:20 2.65972e-05
11 *187:8 *280:8 7.84772e-07
12 *276:20 *280:20 3.39864e-05
13 *278:14 *280:20 3.94217e-05
*RES
1 *1046:Y *280:8 35.057 
2 *280:8 *280:14 43.9233 
3 *280:14 *280:20 40.7838 
4 *280:20 *1049:A2 17.2 
*END

*D_NET *281 0.000263567
*CONN
*I *1049:C I *D OA211x2_ASAP7_75t_R
*I *1052:B I *D OA21x2_ASAP7_75t_R
*I *1060:B I *D OA211x2_ASAP7_75t_R
*I *1047:Y O *D OA21x2_ASAP7_75t_R
*CAP
1 *1049:C 0
2 *1052:B 0
3 *1060:B 0
4 *1047:Y 1.73702e-05
5 *281:44 1.22319e-05
6 *281:38 5.04677e-05
7 *281:22 2.01706e-05
8 *281:14 5.0317e-05
9 *281:8 8.57524e-05
10 *281:14 *284:8 1.64348e-06
11 *281:22 *1053:A2 0
12 *281:22 *284:8 6.33206e-07
13 *281:38 *1566:A 8.63213e-06
14 *281:38 *282:10 4.74248e-06
15 *281:38 *771:19 4.42421e-06
16 *281:38 *776:10 5.22376e-07
17 *281:44 *283:10 0
18 *281:44 *771:19 0
19 *1060:A1 *281:22 4.45472e-06
20 *1060:C *281:22 2.20493e-06
21 *278:25 *281:14 0
22 *280:20 *281:38 0
*RES
1 *1047:Y *281:8 41.3527 
2 *281:8 *281:14 39.5849 
3 *281:14 *281:22 48.8723 
4 *281:22 *1060:B 17.2 
5 *281:14 *1052:B 17.2 
6 *281:8 *281:38 42.5672 
7 *281:38 *281:44 43.4107 
8 *281:44 *1049:C 17.2 
*END

*D_NET *282 0.00011344
*CONN
*I *1049:B I *D OA211x2_ASAP7_75t_R
*I *1048:Y O *D OR3x1_ASAP7_75t_R
*CAP
1 *1049:B 9.86927e-06
2 *1048:Y 1.78335e-05
3 *282:10 2.77027e-05
4 *282:10 *1566:A 1.66584e-05
5 *282:10 *771:19 3.00988e-05
6 *1048:C *282:10 0
7 *276:20 *1049:B 6.53466e-06
8 *280:20 *282:10 0
9 *281:38 *282:10 4.74248e-06
*RES
1 *1048:Y *282:10 49.3504 
2 *282:10 *1049:B 40.8179 
*END

*D_NET *283 0.000534382
*CONN
*I *1614:A I *D BUFx3_ASAP7_75t_R
*I *1057:B1 I *D AO22x2_ASAP7_75t_R
*I *1092:A1 I *D OA21x2_ASAP7_75t_R
*I *1049:Y O *D OA211x2_ASAP7_75t_R
*CAP
1 *1614:A 6.06933e-06
2 *1057:B1 2.95274e-06
3 *1092:A1 3.98511e-06
4 *1049:Y 1.03444e-05
5 *283:20 6.19262e-05
6 *283:18 8.34647e-05
7 *283:14 4.05838e-05
8 *283:10 8.36165e-05
9 *283:8 8.20173e-05
10 *1092:A1 *1092:A2 6.92634e-06
11 *283:10 *776:10 0
12 *283:18 *1050:B 3.42518e-07
13 *283:18 *777:18 1.38885e-05
14 *283:18 *824:8 0
15 *283:20 *1096:A1 3.29635e-05
16 *283:20 *1096:A2 3.66303e-06
17 *283:20 *289:8 0
18 *283:20 *289:47 0
19 *283:20 *291:26 0
20 *283:20 *724:8 0
21 *283:20 *768:25 2.8573e-06
22 *283:20 *777:18 3.88464e-05
23 *283:20 *782:48 4.71862e-06
24 *283:20 *782:54 4.40961e-05
25 *283:20 *783:18 1.11195e-05
26 *281:44 *283:10 0
*RES
1 *1049:Y *283:8 39.2134 
2 *283:8 *283:10 58.5693 
3 *283:10 *283:14 24.1527 
4 *283:14 *283:18 34.6581 
5 *283:18 *283:20 58.5693 
6 *283:20 *1092:A1 37.609 
7 *283:18 *1057:B1 36.0045 
8 *283:14 *1614:A 20.9438 
*END

*D_NET *284 8.35558e-05
*CONN
*I *1052:A2 I *D OA21x2_ASAP7_75t_R
*I *1060:A2 I *D OA211x2_ASAP7_75t_R
*I *1051:Y O *D OR2x2_ASAP7_75t_R
*CAP
1 *1052:A2 0
2 *1060:A2 0
3 *1051:Y 4.96778e-06
4 *284:22 2.08587e-05
5 *284:12 2.26622e-05
6 *284:8 6.77128e-06
7 *1052:A1 *284:22 4.41457e-06
8 *1060:A1 *284:8 8.33296e-06
9 *1060:A1 *284:22 3.32579e-06
10 *278:25 *284:8 9.94583e-06
11 *281:14 *284:8 1.64348e-06
12 *281:22 *284:8 6.33206e-07
*RES
1 *1051:Y *284:8 40.0317 
2 *284:8 *284:12 18.2696 
3 *284:12 *284:22 48.1674 
4 *284:22 *1060:A2 17.2 
5 *284:12 *1052:A2 17.2 
*END

*D_NET *285 6.24433e-05
*CONN
*I *1053:A2 I *D OA21x2_ASAP7_75t_R
*I *1052:Y O *D OA21x2_ASAP7_75t_R
*CAP
1 *1053:A2 1.86755e-05
2 *1052:Y 1.25462e-05
3 *285:8 3.12217e-05
4 *1060:C *1053:A2 0
5 *281:22 *1053:A2 0
*RES
1 *1052:Y *285:8 40.2831 
2 *285:8 *1053:A2 47.3528 
*END

*D_NET *286 2.2764e-05
*CONN
*I *1054:B I *D XOR2x2_ASAP7_75t_R
*I *1053:Y O *D OA21x2_ASAP7_75t_R
*CAP
1 *1054:B 0
2 *1053:Y 1.11652e-05
3 *286:10 1.11652e-05
4 *286:10 *774:35 4.33555e-07
5 *286:10 *777:12 0
*RES
1 *1053:Y *286:10 40.5098 
2 *286:10 *1054:B 34.4 
*END

*D_NET *287 0.000476926
*CONN
*I *1057:A2 I *D AO22x2_ASAP7_75t_R
*I *1061:C I *D OR3x1_ASAP7_75t_R
*I *1112:A I *D OR2x2_ASAP7_75t_R
*I *1055:Y O *D AO21x2_ASAP7_75t_R
*CAP
1 *1057:A2 1.51795e-05
2 *1061:C 0
3 *1112:A 3.68905e-06
4 *1055:Y 2.4502e-05
5 *287:22 1.9268e-05
6 *287:18 5.79691e-05
7 *287:12 7.11543e-05
8 *287:10 6.84457e-05
9 *1057:A2 *1057:A1 3.16328e-06
10 *1057:A2 *1057:B2 8.06117e-06
11 *287:10 *774:35 0
12 *287:12 *288:8 8.2174e-07
13 *287:12 *289:32 2.19336e-06
14 *287:12 *291:8 0
15 *287:12 *294:21 1.62854e-06
16 *287:12 *769:21 0
17 *287:12 *774:8 6.65157e-06
18 *287:12 *774:31 0
19 *287:12 *774:35 0
20 *287:12 *785:22 2.63431e-05
21 *287:12 *825:28 0
22 *287:18 *292:10 1.41285e-05
23 *287:18 *298:14 2.45021e-07
24 *287:18 *769:21 0
25 *287:18 *769:29 6.66291e-06
26 *287:18 *783:18 4.74894e-06
27 *287:18 *783:33 0
28 *287:18 *825:22 4.87564e-06
29 *287:18 *825:28 0
30 *287:22 *1091:A 6.36013e-06
31 *287:22 *1554:A 6.72662e-07
32 *287:22 *291:26 7.20933e-05
33 *287:22 *300:16 7.84772e-07
34 *287:22 *774:16 5.72841e-05
35 *172:14 *287:10 0
*RES
1 *1055:Y *287:10 46.9277 
2 *287:10 *287:12 25.9056 
3 *287:12 *287:18 44.8765 
4 *287:18 *287:22 41.9793 
5 *287:22 *1112:A 36.0045 
6 *287:12 *1061:C 34.4 
7 *287:10 *1057:A2 44.5617 
*END

*D_NET *288 4.96392e-05
*CONN
*I *1057:B2 I *D AO22x2_ASAP7_75t_R
*I *1056:Y O *D AND2x2_ASAP7_75t_R
*CAP
1 *1057:B2 8.94562e-06
2 *1056:Y 2.50739e-06
3 *288:8 1.1453e-05
4 *1057:B2 *1057:A1 9.52454e-06
5 *288:8 *774:35 8.3257e-06
6 *1057:A2 *1057:B2 8.06117e-06
7 *287:12 *288:8 8.2174e-07
*RES
1 *1056:Y *288:8 37.2158 
2 *288:8 *1057:B2 41.8876 
*END

*D_NET *289 0.000706709
*CONN
*I *1550:A I *D BUFx3_ASAP7_75t_R
*I *1146:A I *D OR2x2_ASAP7_75t_R
*I *1156:A1 I *D OAI21x1_ASAP7_75t_R
*I *1066:A2 I *D OA21x2_ASAP7_75t_R
*I *1057:Y O *D AO22x2_ASAP7_75t_R
*CAP
1 *1550:A 0
2 *1146:A 0
3 *1156:A1 7.6652e-06
4 *1066:A2 0
5 *1057:Y 3.40935e-06
6 *289:55 7.6652e-06
7 *289:53 0.000100679
8 *289:51 0.000100679
9 *289:49 2.5693e-05
10 *289:47 4.78868e-05
11 *289:32 5.52284e-05
12 *289:26 8.04538e-05
13 *289:16 2.83896e-05
14 *289:8 2.87673e-05
15 *1156:A1 *1146:B 8.39579e-06
16 *1156:A1 *342:6 1.92671e-05
17 *289:26 *769:38 1.1208e-06
18 *289:32 *1096:A1 3.90258e-06
19 *289:32 *1096:A2 3.71555e-06
20 *289:32 *1096:B1 6.49184e-07
21 *289:32 *1096:B2 3.89037e-06
22 *289:32 *783:33 0
23 *289:32 *825:22 3.91501e-06
24 *289:32 *825:28 6.59666e-06
25 *289:47 *1096:A2 0
26 *289:47 *296:12 1.44975e-05
27 *289:53 *1142:B1 0
28 *289:53 *1616:A 1.61445e-05
29 *289:53 *302:17 4.87792e-06
30 *289:53 *302:30 7.31443e-06
31 *289:53 *306:20 3.6817e-06
32 *289:53 *307:14 3.28696e-06
33 *289:53 *314:8 4.10928e-06
34 *289:53 *316:16 0
35 *289:53 *316:26 0
36 *289:53 *317:27 6.14013e-05
37 *289:53 *336:8 3.76935e-06
38 *289:53 *781:27 1.44925e-06
39 *289:53 *787:17 6.6421e-06
40 *289:53 *787:25 0
41 *289:53 *790:40 2.71662e-05
42 *192:42 *289:53 1.22047e-05
43 *283:20 *289:8 0
44 *283:20 *289:47 0
45 *287:12 *289:32 2.19336e-06
*RES
1 *1057:Y *289:8 36.3711 
2 *289:8 *289:16 40.883 
3 *289:16 *289:26 47.5317 
4 *289:26 *289:32 40.4809 
5 *289:32 *1066:A2 34.4 
6 *289:26 *289:47 45.3516 
7 *289:47 *289:49 13.3706 
8 *289:49 *289:51 17.2 
9 *289:51 *289:53 90.1066 
10 *289:53 *289:55 17.2 
11 *289:55 *1156:A1 26.292 
12 *289:55 *1146:A 17.2 
13 *289:49 *1550:A 17.2 
*END

*D_NET *290 0.000355311
*CONN
*I *1555:A I *D BUFx3_ASAP7_75t_R
*I *1116:A1 I *D OA211x2_ASAP7_75t_R
*I *1059:Y O *D OA21x2_ASAP7_75t_R
*CAP
1 *1555:A 4.1381e-06
2 *1116:A1 1.29874e-06
3 *1059:Y 8.92132e-06
4 *290:18 4.79059e-05
5 *290:16 7.98648e-05
6 *290:10 3.80409e-05
7 *1116:A1 *1116:B 1.52651e-06
8 *1555:A *772:23 2.05284e-06
9 *1555:A *846:14 5.63702e-07
10 *1555:A *846:29 4.71596e-06
11 *290:10 *1086:B 5.13209e-07
12 *290:10 *1087:A 9.43723e-06
13 *290:10 *1087:B 6.46278e-06
14 *290:16 *1086:A 6.19506e-06
15 *290:16 *1086:B 2.90209e-08
16 *290:16 *1086:C 3.56596e-05
17 *290:18 *1062:A 1.21149e-06
18 *290:18 *295:25 6.4069e-06
19 *290:18 *772:23 4.84697e-07
20 *290:18 *782:10 1.95634e-05
21 *290:18 *782:42 2.25312e-05
22 *290:18 *838:32 2.33787e-05
23 *290:18 *838:71 2.20663e-05
24 *290:18 *840:68 6.91154e-06
25 *290:18 *846:14 5.43155e-06
26 *1572:A *290:18 0
*RES
1 *1059:Y *290:10 40.4531 
2 *290:10 *290:16 46.701 
3 *290:16 *290:18 45.0533 
4 *290:18 *1116:A1 35.4697 
5 *290:16 *1555:A 38.9053 
*END

*D_NET *291 0.000748228
*CONN
*I *1061:A I *D OR3x1_ASAP7_75t_R
*I *1139:B I *D OR2x2_ASAP7_75t_R
*I *1117:A1 I *D OA211x2_ASAP7_75t_R
*I *1060:Y O *D OA211x2_ASAP7_75t_R
*CAP
1 *1061:A 6.94986e-06
2 *1139:B 0
3 *1117:A1 0
4 *1060:Y 0
5 *291:42 7.61413e-06
6 *291:36 2.58603e-05
7 *291:28 3.77694e-05
8 *291:26 4.42696e-05
9 *291:22 6.03222e-05
10 *291:16 4.97301e-05
11 *291:12 2.50995e-05
12 *291:8 4.64076e-05
13 *291:6 4.24122e-05
14 *1061:A *298:8 1.43515e-05
15 *291:8 *303:8 8.3668e-07
16 *291:8 *769:21 1.72783e-05
17 *291:8 *772:23 0
18 *291:8 *774:8 0
19 *291:8 *785:10 3.61852e-06
20 *291:8 *785:22 0
21 *291:8 *846:29 2.97641e-06
22 *291:12 *298:8 1.00854e-05
23 *291:16 *1062:A 3.38221e-06
24 *291:16 *1063:A 1.96132e-05
25 *291:16 *297:14 2.60502e-05
26 *291:16 *298:14 4.07916e-06
27 *291:16 *765:8 5.2059e-06
28 *291:16 *846:29 7.35063e-07
29 *291:22 *722:20 0
30 *291:26 *1554:A 4.3937e-06
31 *291:26 *299:10 7.8739e-06
32 *291:26 *308:10 0
33 *291:26 *768:12 5.48875e-06
34 *291:26 *777:18 3.26778e-06
35 *291:26 *790:10 0
36 *291:28 *308:6 1.76928e-06
37 *291:36 *308:10 9.67723e-06
38 *291:42 *320:27 5.98031e-06
39 *291:42 *326:8 8.45637e-06
40 *291:42 *327:18 9.1471e-07
41 *291:42 *329:8 2.04071e-05
42 *291:42 *790:10 7.53871e-06
43 *291:42 *790:29 7.84037e-07
44 *1055:B *291:8 3.41013e-05
45 *1060:C *291:8 1.18273e-05
46 *1093:A *291:8 4.97654e-06
47 *172:10 *291:8 3.35641e-06
48 *172:12 *291:8 2.16352e-05
49 *172:14 *291:8 2.21506e-05
50 *173:19 *291:8 0
51 *183:10 *291:8 2.36473e-05
52 *183:19 *291:8 2.32408e-05
53 *283:20 *291:26 0
54 *287:12 *291:8 0
55 *287:22 *291:26 7.20933e-05
*RES
1 *1060:Y *291:6 34.4 
2 *291:6 *291:8 48.9954 
3 *291:8 *291:12 19.8741 
4 *291:12 *291:16 33.6257 
5 *291:16 *291:22 45.2219 
6 *291:22 *291:26 46.3908 
7 *291:26 *291:28 9.09202 
8 *291:28 *291:36 42.5924 
9 *291:36 *291:42 46.7897 
10 *291:42 *1117:A1 17.2 
11 *291:28 *1139:B 17.2 
12 *291:12 *1061:A 22.0134 
*END

*D_NET *292 0.000154233
*CONN
*I *1062:B I *D NAND2x1_ASAP7_75t_R
*I *1088:B1 I *D AO221x1_ASAP7_75t_R
*I *1061:Y O *D OR3x1_ASAP7_75t_R
*CAP
1 *1062:B 3.31157e-06
2 *1088:B1 0
3 *1061:Y 1.17548e-05
4 *292:16 1.75452e-05
5 *292:10 3.72703e-05
6 *292:8 2.81683e-05
7 *292:8 *769:29 4.07212e-06
8 *292:10 *297:14 8.86127e-07
9 *292:10 *298:14 5.2059e-06
10 *292:16 *293:8 5.96568e-06
11 *292:16 *297:14 2.59248e-05
12 *292:16 *783:10 0
13 *292:16 *783:33 0
14 *287:18 *292:10 1.41285e-05
*RES
1 *1061:Y *292:8 39.2134 
2 *292:8 *292:10 14.0792 
3 *292:10 *292:16 33.6982 
4 *292:16 *1088:B1 17.2 
5 *292:10 *1062:B 36.0045 
*END

*D_NET *293 1.74043e-05
*CONN
*I *1063:B I *D XNOR2x2_ASAP7_75t_R
*I *1062:Y O *D NAND2x1_ASAP7_75t_R
*CAP
1 *1063:B 0
2 *1062:Y 2.73648e-06
3 *293:8 2.73648e-06
4 *293:8 *297:14 5.96568e-06
5 *292:16 *293:8 5.96568e-06
*RES
1 *1062:Y *293:8 38.9053 
2 *293:8 *1063:B 34.4 
*END

*D_NET *294 5.94859e-05
*CONN
*I *1094:B I *D AO21x1_ASAP7_75t_R
*I *1066:A1 I *D OA21x2_ASAP7_75t_R
*I *1064:Y O *D OR2x2_ASAP7_75t_R
*CAP
1 *1094:B 0
2 *1066:A1 0
3 *1064:Y 6.16231e-06
4 *294:21 2.16527e-05
5 *294:6 2.7815e-05
6 *294:6 *774:14 0
7 *294:21 *774:14 0
8 *294:21 *774:31 2.22736e-06
9 *287:12 *294:21 1.62854e-06
*RES
1 *1064:Y *294:6 19.8741 
2 *294:6 *1066:A1 17.2 
3 *294:6 *294:21 46.4496 
4 *294:21 *1094:B 17.2 
*END

*D_NET *295 0.000303059
*CONN
*I *1149:A1 I *D OA211x2_ASAP7_75t_R
*I *1615:A I *D BUFx3_ASAP7_75t_R
*I *1065:Y O *D OA21x2_ASAP7_75t_R
*CAP
1 *1149:A1 4.24536e-06
2 *1615:A 0
3 *1065:Y 2.17219e-05
4 *295:25 4.8432e-05
5 *295:23 5.96901e-05
6 *295:14 2.50429e-05
7 *295:10 3.12613e-05
8 *1149:A1 *1149:B 1.21211e-05
9 *295:10 *782:18 7.97373e-06
10 *295:14 *782:16 2.3392e-05
11 *295:23 *782:16 1.89933e-05
12 *295:23 *825:10 2.47522e-06
13 *295:25 *1063:A 2.01661e-05
14 *295:25 *1116:C 1.03816e-05
15 *295:25 *297:14 2.19685e-06
16 *295:25 *838:32 4.42421e-06
17 *295:25 *838:71 4.13496e-06
18 *290:18 *295:25 6.4069e-06
*RES
1 *1065:Y *295:10 44.2252 
2 *295:10 *295:14 24.1527 
3 *295:14 *1615:A 17.2 
4 *295:14 *295:23 27.3617 
5 *295:23 *295:25 40.548 
6 *295:25 *1149:A1 38.1438 
*END

*D_NET *296 0.000142998
*CONN
*I *1067:A I *D XOR2x2_ASAP7_75t_R
*I *1066:Y O *D OA21x2_ASAP7_75t_R
*CAP
1 *1067:A 3.27423e-06
2 *1066:Y 4.10201e-05
3 *296:12 2.11917e-05
4 *296:6 5.89376e-05
5 *296:12 *306:12 4.07716e-06
6 *289:47 *296:12 1.44975e-05
*RES
1 *1066:Y *296:6 34.8492 
2 *296:6 *296:12 48.4791 
3 *296:12 *1067:A 18.8045 
*END

*D_NET *297 0.000255221
*CONN
*I *1088:B2 I *D AO221x1_ASAP7_75t_R
*I *1086:Y O *D AND3x1_ASAP7_75t_R
*CAP
1 *1088:B2 0
2 *1086:Y 1.53781e-05
3 *297:14 3.18945e-05
4 *297:8 4.72726e-05
5 *297:8 *1086:C 3.91296e-05
6 *297:8 *782:46 3.41589e-05
7 *297:14 *1063:A 9.65855e-06
8 *297:14 *1088:C 1.95129e-06
9 *297:14 *722:10 5.25794e-06
10 *297:14 *825:10 9.49598e-06
11 *291:16 *297:14 2.60502e-05
12 *292:10 *297:14 8.86127e-07
13 *292:16 *297:14 2.59248e-05
14 *293:8 *297:14 5.96568e-06
15 *295:25 *297:14 2.19685e-06
*RES
1 *1086:Y *297:8 47.7706 
2 *297:8 *297:14 49.1551 
3 *297:14 *1088:B2 17.2 
*END

*D_NET *298 0.000326829
*CONN
*I *1088:C I *D AO221x1_ASAP7_75t_R
*I *1087:Y O *D AND3x1_ASAP7_75t_R
*CAP
1 *1088:C 4.55254e-06
2 *1087:Y 1.87015e-05
3 *298:18 1.87039e-05
4 *298:14 4.30542e-05
5 *298:8 4.76043e-05
6 *298:8 *846:29 1.89933e-05
7 *298:14 *769:29 5.15209e-07
8 *298:14 *782:46 1.73901e-05
9 *298:18 *774:16 5.9765e-05
10 *298:18 *783:10 2.6674e-05
11 *298:18 *783:33 3.49562e-05
12 *1061:A *298:8 1.43515e-05
13 *287:18 *298:14 2.45021e-07
14 *291:12 *298:8 1.00854e-05
15 *291:16 *298:14 4.07916e-06
16 *292:10 *298:14 5.2059e-06
17 *297:14 *1088:C 1.95129e-06
*RES
1 *1087:Y *298:8 46.701 
2 *298:8 *298:14 36.3156 
3 *298:14 *298:18 38.0371 
4 *298:18 *1088:C 36.5393 
*END

*D_NET *299 7.71409e-05
*CONN
*I *1089:B I *D XOR2x2_ASAP7_75t_R
*I *1088:Y O *D AO221x1_ASAP7_75t_R
*CAP
1 *1089:B 0
2 *1088:Y 2.08756e-05
3 *299:10 2.08756e-05
4 *299:10 *768:25 1.02506e-06
5 *299:10 *774:16 1.49407e-08
6 *299:10 *777:18 2.29141e-05
7 *299:10 *782:54 3.56177e-06
8 *291:26 *299:10 7.8739e-06
*RES
1 *1088:Y *299:10 48.1674 
2 *299:10 *1089:B 34.4 
*END

*D_NET *300 0.000234275
*CONN
*I *1091:A I *D OR3x1_ASAP7_75t_R
*I *1112:B I *D OR2x2_ASAP7_75t_R
*I *1554:A I *D BUFx3_ASAP7_75t_R
*I *1090:Y O *D OR4x2_ASAP7_75t_R
*CAP
1 *1091:A 1.35021e-05
2 *1112:B 0
3 *1554:A 1.67232e-05
4 *1090:Y 4.88156e-06
5 *300:16 1.75711e-05
6 *300:14 1.43501e-05
7 *300:12 5.28941e-05
8 *300:8 5.77756e-05
9 *1091:A *768:6 1.3659e-05
10 *1091:A *774:16 1.19435e-05
11 *1091:A *783:10 1.182e-05
12 *1554:A *312:8 1.76928e-06
13 *300:12 *722:20 0
14 *300:12 *843:24 2.22701e-06
15 *184:14 *300:8 0
16 *185:20 *300:8 2.9349e-06
17 *236:39 *300:12 1.24672e-08
18 *287:22 *1091:A 6.36013e-06
19 *287:22 *1554:A 6.72662e-07
20 *287:22 *300:16 7.84772e-07
21 *291:26 *1554:A 4.3937e-06
*RES
1 *1090:Y *300:8 38.8115 
2 *300:8 *300:12 39.7096 
3 *300:12 *300:14 17.2 
4 *300:14 *300:16 0.657027 
5 *300:16 *1554:A 47.1544 
6 *300:16 *1112:B 34.4 
7 *300:14 *1091:A 47.0606 
*END

*D_NET *301 2.59823e-05
*CONN
*I *1092:A2 I *D OA21x2_ASAP7_75t_R
*I *1091:Y O *D OR3x1_ASAP7_75t_R
*CAP
1 *1092:A2 7.58277e-06
2 *1091:Y 7.58277e-06
3 *1092:A2 *1092:B 3.89037e-06
4 *1092:A1 *1092:A2 6.92634e-06
*RES
1 *1091:Y *1092:A2 39.7482 
*END

*D_NET *302 0.000161516
*CONN
*I *1549:A I *D BUFx3_ASAP7_75t_R
*I *1126:A I *D AND4x1_ASAP7_75t_R
*I *1097:A I *D AND2x2_ASAP7_75t_R
*I *1092:Y O *D OA21x2_ASAP7_75t_R
*CAP
1 *1549:A 0
2 *1126:A 0
3 *1097:A 0
4 *1092:Y 1.64133e-05
5 *302:30 2.86111e-05
6 *302:17 4.69368e-05
7 *302:6 3.47391e-05
8 *302:6 *306:20 3.46317e-06
9 *302:17 *306:40 5.49212e-07
10 *302:17 *307:8 2.52755e-07
11 *302:17 *316:26 8.23376e-06
12 *302:30 *306:40 3.27327e-06
13 *302:30 *723:6 6.85081e-06
14 *289:53 *302:17 4.87792e-06
15 *289:53 *302:30 7.31443e-06
*RES
1 *1092:Y *302:6 27.3617 
2 *302:6 *1097:A 17.2 
3 *302:6 *302:17 31.5589 
4 *302:17 *1126:A 34.4 
5 *302:17 *302:30 38.2319 
6 *302:30 *1549:A 17.2 
*END

*D_NET *303 4.53549e-05
*CONN
*I *1094:A2 I *D AO21x1_ASAP7_75t_R
*I *1093:Y O *D OR2x2_ASAP7_75t_R
*CAP
1 *1094:A2 1.2692e-05
2 *1093:Y 7.33571e-06
3 *303:8 2.00277e-05
4 *1094:A2 *785:14 4.17901e-06
5 *303:8 *785:22 2.83874e-07
6 *291:8 *303:8 8.3668e-07
*RES
1 *1093:Y *303:8 38.9053 
2 *303:8 *1094:A2 41.8876 
*END

*D_NET *304 8.14534e-05
*CONN
*I *1096:B2 I *D AO221x2_ASAP7_75t_R
*I *1094:Y O *D AO21x1_ASAP7_75t_R
*CAP
1 *1096:B2 1.50632e-05
2 *1094:Y 1.21563e-05
3 *304:8 2.72195e-05
4 *1096:B2 *774:16 5.15209e-07
5 *1096:B2 *774:31 5.52264e-06
6 *1096:B2 *777:18 1.57451e-05
7 *1096:B2 *783:33 5.82745e-07
8 *304:8 *774:31 7.58265e-07
9 *289:32 *1096:B2 3.89037e-06
*RES
1 *1094:Y *304:8 39.7482 
2 *304:8 *1096:B2 48.4225 
*END

*D_NET *305 3.86006e-05
*CONN
*I *1096:B1 I *D AO221x2_ASAP7_75t_R
*I *1095:Y O *D AND2x2_ASAP7_75t_R
*CAP
1 *1096:B1 2.55838e-06
2 *1095:Y 6.94596e-06
3 *305:8 9.50434e-06
4 *1096:B1 *783:33 2.30405e-06
5 *305:8 *774:16 1.61317e-05
6 *305:8 *777:18 4.7643e-07
7 *305:8 *783:41 3.05118e-08
8 *289:32 *1096:B1 6.49184e-07
*RES
1 *1095:Y *305:8 40.0317 
2 *305:8 *1096:B1 36.0045 
*END

*D_NET *306 0.000195404
*CONN
*I *1126:C I *D AND4x1_ASAP7_75t_R
*I *1548:A I *D BUFx3_ASAP7_75t_R
*I *1097:B I *D AND2x2_ASAP7_75t_R
*I *1096:Y O *D AO221x2_ASAP7_75t_R
*CAP
1 *1126:C 0
2 *1548:A 0
3 *1097:B 0
4 *1096:Y 0
5 *306:40 1.5977e-05
6 *306:27 2.90086e-05
7 *306:20 1.88338e-05
8 *306:12 7.12762e-05
9 *306:6 3.94109e-05
10 *306:12 *1096:A2 2.92664e-06
11 *306:12 *768:25 2.92664e-06
12 *289:53 *306:20 3.6817e-06
13 *296:12 *306:12 4.07716e-06
14 *302:6 *306:20 3.46317e-06
15 *302:17 *306:40 5.49212e-07
16 *302:30 *306:40 3.27327e-06
*RES
1 *1096:Y *306:6 34.4 
2 *306:6 *306:12 44.7631 
3 *306:12 *306:20 48.4225 
4 *306:20 *1097:B 17.2 
5 *306:12 *306:27 6.95272 
6 *306:27 *1548:A 17.2 
7 *306:27 *306:40 44.8451 
8 *306:40 *1126:C 17.2 
*END

*D_NET *307 0.000116763
*CONN
*I *1098:A I *D XOR2x2_ASAP7_75t_R
*I *1097:Y O *D AND2x2_ASAP7_75t_R
*CAP
1 *1098:A 0
2 *1097:Y 3.68929e-06
3 *307:14 3.17764e-05
4 *307:8 3.54656e-05
5 *307:14 *316:8 0
6 *307:14 *316:16 6.33206e-07
7 *307:14 *320:39 1.47844e-05
8 *307:14 *320:52 0
9 *307:14 *773:79 2.83874e-07
10 *307:14 *826:14 0
11 *307:14 *826:21 0
12 *192:42 *307:14 2.659e-05
13 *289:53 *307:14 3.28696e-06
14 *302:17 *307:8 2.52755e-07
*RES
1 *1097:Y *307:8 36.0045 
2 *307:8 *307:14 42.4008 
3 *307:14 *1098:A 17.2 
*END

*D_NET *308 0.000120222
*CONN
*I *1139:A I *D OR2x2_ASAP7_75t_R
*I *1117:A2 I *D OA211x2_ASAP7_75t_R
*I *1112:Y O *D OR2x2_ASAP7_75t_R
*CAP
1 *1139:A 3.36799e-06
2 *1117:A2 0
3 *1112:Y 8.3133e-06
4 *308:10 1.46493e-05
5 *308:6 2.63306e-05
6 *308:10 *764:8 0
7 *308:10 *790:10 5.6114e-05
8 *291:26 *308:10 0
9 *291:28 *308:6 1.76928e-06
10 *291:36 *308:10 9.67723e-06
*RES
1 *1112:Y *308:6 22.5483 
2 *308:6 *308:10 35.7845 
3 *308:10 *1117:A2 34.4 
4 *308:6 *1139:A 18.8045 
*END

*D_NET *309 3.30376e-05
*CONN
*I *1116:A2 I *D OA211x2_ASAP7_75t_R
*I *1113:Y O *D OR3x2_ASAP7_75t_R
*CAP
1 *1116:A2 5.72385e-06
2 *1113:Y 5.72485e-06
3 *309:8 1.14487e-05
4 *1116:A2 *1116:B 4.17901e-06
5 *309:8 *840:12 5.67735e-06
6 *309:8 *840:68 2.83874e-07
*RES
1 *1113:Y *309:8 38.9053 
2 *309:8 *1116:A2 38.6786 
*END

*D_NET *310 9.97088e-05
*CONN
*I *1116:B I *D OA211x2_ASAP7_75t_R
*I *1114:Y O *D OR3x2_ASAP7_75t_R
*CAP
1 *1116:B 1.50507e-05
2 *1114:Y 8.2861e-06
3 *310:10 2.33368e-05
4 *1116:B *840:12 1.60115e-05
5 *1116:B *840:51 8.87763e-06
6 *310:10 *1114:C 1.22515e-05
7 *310:10 *840:12 8.06436e-06
8 *310:10 *840:24 0
9 *1116:A1 *1116:B 1.52651e-06
10 *1116:A2 *1116:B 4.17901e-06
11 *1630:A *310:10 2.12481e-06
*RES
1 *1114:Y *310:10 42.0293 
2 *310:10 *1116:B 46.701 
*END

*D_NET *311 0.000156886
*CONN
*I *1116:C I *D OA211x2_ASAP7_75t_R
*I *1149:B I *D OA211x2_ASAP7_75t_R
*I *1115:Y O *D OR2x2_ASAP7_75t_R
*CAP
1 *1116:C 8.13313e-06
2 *1149:B 1.01963e-05
3 *1115:Y 3.98682e-06
4 *311:10 3.34771e-05
5 *311:8 1.91346e-05
6 *1116:C *838:12 6.97416e-06
7 *1116:C *838:32 2.0153e-05
8 *1149:B *1149:A2 2.20493e-06
9 *311:10 *334:8 6.62106e-06
10 *311:10 *838:12 2.35022e-05
11 *311:10 *838:20 0
12 *1149:A1 *1149:B 1.21211e-05
13 *295:25 *1116:C 1.03816e-05
*RES
1 *1115:Y *311:8 36.0045 
2 *311:8 *311:10 15.2055 
3 *311:10 *1149:B 41.8876 
4 *311:10 *1116:C 44.4803 
*END

*D_NET *312 0.000216025
*CONN
*I *1142:A1 I *D AO32x1_ASAP7_75t_R
*I *1117:B I *D OA211x2_ASAP7_75t_R
*I *1116:Y O *D OA211x2_ASAP7_75t_R
*CAP
1 *1142:A1 7.42508e-06
2 *1117:B 5.12711e-06
3 *1116:Y 3.20126e-05
4 *312:16 1.25522e-05
5 *312:14 5.01774e-05
6 *312:8 8.219e-05
7 *1117:B *320:27 4.83862e-06
8 *1117:B *790:29 2.28802e-06
9 *1117:B *790:40 2.12481e-06
10 *1142:A1 *317:27 0
11 *1142:A1 *320:27 1.17065e-05
12 *1142:A1 *320:31 1.40419e-08
13 *312:14 *764:8 3.79923e-06
14 *312:14 *790:6 0
15 *312:14 *790:29 0
16 *1554:A *312:8 1.76928e-06
*RES
1 *1116:Y *312:8 49.9099 
2 *312:8 *312:14 39.2979 
3 *312:14 *312:16 17.2 
4 *312:16 *1117:B 39.2984 
5 *312:16 *1142:A1 39.975 
*END

*D_NET *313 2.4474e-05
*CONN
*I *1118:A2 I *D OA21x2_ASAP7_75t_R
*I *1117:Y O *D OA211x2_ASAP7_75t_R
*CAP
1 *1118:A2 1.73778e-06
2 *1117:Y 9.27309e-06
3 *313:8 1.10109e-05
4 *1118:A2 *329:12 1.36155e-06
5 *313:8 *317:27 0
6 *313:8 *320:27 1.09067e-06
*RES
1 *1117:Y *313:8 40.0317 
2 *313:8 *1118:A2 35.4697 
*END

*D_NET *314 0.000230378
*CONN
*I *1613:A I *D BUFx3_ASAP7_75t_R
*I *1119:B I *D XOR2x2_ASAP7_75t_R
*I *1118:Y O *D OA21x2_ASAP7_75t_R
*CAP
1 *1613:A 6.57385e-06
2 *1119:B 1.31295e-05
3 *1118:Y 2.63442e-06
4 *314:14 1.97034e-05
5 *314:12 7.81367e-05
6 *314:10 7.81367e-05
7 *314:8 2.63442e-06
8 *1119:B *1184:B 0
9 *1119:B *346:12 1.09067e-06
10 *1119:B *823:8 0
11 *1119:B *823:20 0
12 *1613:A *823:8 0
13 *314:8 *781:27 4.41094e-06
14 *314:12 *1151:A 4.86884e-06
15 *314:12 *1151:C 3.90258e-06
16 *314:12 *1151:D 7.92271e-06
17 *314:12 *1184:A 1.07377e-06
18 *314:12 *1184:C 1.78333e-06
19 *314:12 *792:35 2.66797e-07
20 *289:53 *314:8 4.10928e-06
*RES
1 *1118:Y *314:8 37.779 
2 *314:8 *314:10 17.2 
3 *314:10 *314:12 33.694 
4 *314:12 *314:14 17.2 
5 *314:14 *1119:B 44.537 
6 *314:14 *1613:A 38.9053 
*END

*D_NET *316 0.000171156
*CONN
*I *1128:A I *D AND3x1_ASAP7_75t_R
*I *1123:A I *D OR2x2_ASAP7_75t_R
*I *1126:B I *D AND4x1_ASAP7_75t_R
*I *1121:Y O *D INVx1_ASAP7_75t_R
*CAP
1 *1128:A 0
2 *1123:A 1.31988e-05
3 *1126:B 0
4 *1121:Y 6.92656e-06
5 *316:26 2.57655e-05
6 *316:18 1.25667e-05
7 *316:16 1.52534e-05
8 *316:8 2.218e-05
9 *1123:A *321:8 1.73158e-05
10 *1123:A *766:14 1.79628e-05
11 *316:8 *320:52 2.35211e-06
12 *316:8 *766:10 4.1009e-06
13 *316:8 *773:79 7.84037e-07
14 *316:8 *773:92 1.88253e-06
15 *316:8 *826:14 4.83862e-06
16 *316:8 *826:21 1.31716e-05
17 *316:16 *766:29 5.0551e-07
18 *316:26 *1123:B 2.59962e-07
19 *316:26 *766:29 3.22378e-06
20 *289:53 *316:16 0
21 *289:53 *316:26 0
22 *302:17 *316:26 8.23376e-06
23 *307:14 *316:8 0
24 *307:14 *316:16 6.33206e-07
*RES
1 *1121:Y *316:8 43.4107 
2 *316:8 *316:16 42.0293 
3 *316:16 *316:18 17.2 
4 *316:18 *316:26 45.0151 
5 *316:26 *1126:B 17.2 
6 *316:26 *1123:A 28.9662 
7 *316:18 *1128:A 17.2 
*END

*D_NET *317 0.000416241
*CONN
*I *1616:A I *D BUFx3_ASAP7_75t_R
*I *1140:A2 I *D OA211x2_ASAP7_75t_R
*I *1144:C I *D OR3x1_ASAP7_75t_R
*I *1122:Y O *D OR2x2_ASAP7_75t_R
*CAP
1 *1616:A 6.35586e-06
2 *1140:A2 1.62831e-06
3 *1144:C 0
4 *1122:Y 0
5 *317:27 3.06622e-05
6 *317:25 6.8924e-05
7 *317:21 6.60084e-05
8 *317:12 3.45099e-05
9 *317:6 5.42723e-05
10 *1140:A2 *320:31 5.85387e-06
11 *1616:A *773:68 0
12 *317:12 *1145:B 2.77657e-06
13 *317:12 *320:10 9.67723e-06
14 *317:12 *330:8 4.97342e-06
15 *317:12 *761:10 0
16 *317:12 *764:8 2.22736e-06
17 *317:12 *773:8 1.02072e-05
18 *317:21 *764:8 1.28246e-05
19 *317:27 *781:27 2.20179e-07
20 *1142:A1 *317:27 0
21 *1142:B2 *1140:A2 5.85387e-06
22 *1144:B *317:12 3.46317e-06
23 *1563:A *317:12 0
24 *192:12 *317:12 3.89037e-06
25 *253:12 *317:12 2.25787e-06
26 *253:12 *317:21 3.29527e-06
27 *256:14 *317:12 8.8135e-06
28 *289:53 *1616:A 1.61445e-05
29 *289:53 *317:27 6.14013e-05
30 *313:8 *317:27 0
*RES
1 *1122:Y *317:6 34.4 
2 *317:6 *317:12 48.1174 
3 *317:12 *1144:C 17.2 
4 *317:6 *317:21 36.0661 
5 *317:21 *317:25 35.8137 
6 *317:25 *317:27 20.5556 
7 *317:27 *1140:A2 36.0045 
8 *317:27 *1616:A 40.0317 
*END

*D_NET *318 0.000105316
*CONN
*I *1124:B I *D NOR2x1_ASAP7_75t_R
*I *1130:A2 I *D OAI21x1_ASAP7_75t_R
*I *1123:Y O *D OR2x2_ASAP7_75t_R
*CAP
1 *1124:B 1.01448e-05
2 *1130:A2 1.04532e-05
3 *1123:Y 1.15092e-05
4 *318:10 3.21071e-05
5 *1124:B *319:8 7.21451e-07
6 *1124:B *324:14 3.14574e-06
7 *1130:A2 *1131:B 1.95129e-06
8 *1130:A2 *324:14 6.19506e-06
9 *318:10 *1131:A 5.58158e-06
10 *318:10 *321:8 3.65131e-06
11 *318:10 *324:14 1.98557e-05
*RES
1 *1123:Y *318:10 43.8321 
2 *318:10 *1130:A2 40.2831 
3 *318:10 *1124:B 42.2843 
*END

*D_NET *319 3.38242e-05
*CONN
*I *1131:C I *D OR3x1_ASAP7_75t_R
*I *1124:Y O *D NOR2x1_ASAP7_75t_R
*CAP
1 *1131:C 7.24714e-06
2 *1124:Y 6.94796e-06
3 *319:8 1.41951e-05
4 *1131:C *1131:B 4.7125e-06
5 *1124:B *319:8 7.21451e-07
*RES
1 *1124:Y *319:8 38.9053 
2 *319:8 *1131:C 38.6786 
*END

*D_NET *320 0.000540484
*CONN
*I *1141:A1 I *D AO21x1_ASAP7_75t_R
*I *1556:A I *D BUFx3_ASAP7_75t_R
*I *1140:B I *D OA211x2_ASAP7_75t_R
*I *1154:A2 I *D OA21x2_ASAP7_75t_R
*I *1125:Y O *D OA21x2_ASAP7_75t_R
*CAP
1 *1141:A1 8.57607e-06
2 *1556:A 0
3 *1140:B 0
4 *1154:A2 7.41236e-06
5 *1125:Y 6.55775e-06
6 *320:52 2.43043e-05
7 *320:39 7.12769e-06
8 *320:31 7.15023e-05
9 *320:27 0.000112407
10 *320:16 7.11731e-05
11 *320:14 4.37869e-05
12 *320:10 5.03447e-05
13 *1141:A1 *1142:B1 3.79923e-06
14 *1141:A1 *326:8 3.32524e-06
15 *1154:A2 *341:10 0
16 *1154:A2 *761:10 0
17 *320:14 *773:12 0
18 *320:14 *787:6 6.26851e-06
19 *320:27 *1118:A1 3.90551e-06
20 *320:27 *1142:B1 1.89962e-06
21 *320:27 *326:8 3.47607e-06
22 *320:27 *327:18 1.70708e-06
23 *320:27 *341:10 0
24 *320:27 *761:10 0
25 *320:27 *780:8 2.22736e-06
26 *320:27 *781:27 0
27 *320:27 *787:25 0
28 *320:27 *790:29 8.33296e-06
29 *320:31 *1142:A2 6.7842e-07
30 *320:31 *1142:B1 5.62196e-06
31 *320:39 *327:10 3.67067e-06
32 *320:52 *327:10 0
33 *320:52 *773:79 1.49407e-08
34 *320:52 *773:92 2.39567e-06
35 *1117:B *320:27 4.83862e-06
36 *1140:A2 *320:31 5.85387e-06
37 *1140:C *320:31 3.3921e-06
38 *1140:C *320:39 1.35684e-06
39 *1140:C *320:52 1.44639e-06
40 *1142:A1 *320:27 1.17065e-05
41 *1142:A1 *320:31 1.40419e-08
42 *1142:B2 *320:31 1.43369e-05
43 *1577:A *320:14 3.1923e-06
44 *252:23 *320:27 0
45 *256:14 *320:10 9.94583e-06
46 *291:42 *320:27 5.98031e-06
47 *307:14 *320:39 1.47844e-05
48 *307:14 *320:52 0
49 *313:8 *320:27 1.09067e-06
50 *316:8 *320:52 2.35211e-06
51 *317:12 *320:10 9.67723e-06
*RES
1 *1125:Y *320:10 39.3835 
2 *320:10 *320:14 36.9885 
3 *320:14 *320:16 17.2 
4 *320:16 *1154:A2 39.4685 
5 *320:16 *320:27 51.2481 
6 *320:27 *320:31 35.9189 
7 *320:31 *320:39 40.5381 
8 *320:39 *1140:B 17.2 
9 *320:31 *320:52 46.9277 
10 *320:52 *1556:A 17.2 
11 *320:27 *1141:A1 39.9183 
*END

*D_NET *321 0.000102506
*CONN
*I *1131:A I *D OR3x1_ASAP7_75t_R
*I *1126:Y O *D AND4x1_ASAP7_75t_R
*CAP
1 *1131:A 1.24246e-05
2 *1126:Y 1.87785e-05
3 *321:8 3.1203e-05
4 *1131:A *1131:B 1.24225e-05
5 *1131:A *324:14 1.12894e-06
6 *1123:A *321:8 1.73158e-05
7 *318:10 *1131:A 5.58158e-06
8 *318:10 *321:8 3.65131e-06
*RES
1 *1126:Y *321:8 48.3055 
2 *321:8 *1131:A 44.3669 
*END

*D_NET *322 3.882e-05
*CONN
*I *1129:A2 I *D AOI21x1_ASAP7_75t_R
*I *1127:Y O *D INVx1_ASAP7_75t_R
*CAP
1 *1129:A2 0
2 *1127:Y 1.7672e-05
3 *322:10 1.7672e-05
4 *322:10 *788:10 3.47607e-06
*RES
1 *1127:Y *322:10 43.7754 
2 *322:10 *1129:A2 34.4 
*END

*D_NET *323 4.74064e-05
*CONN
*I *1129:B I *D AOI21x1_ASAP7_75t_R
*I *1128:Y O *D AND3x1_ASAP7_75t_R
*CAP
1 *1129:B 1.92035e-05
2 *1128:Y 1.92035e-05
3 *1129:B *324:8 5.34278e-06
4 *1129:B *788:10 3.65663e-06
*RES
1 *1128:Y *1129:B 47.7706 
*END

*D_NET *324 9.55126e-05
*CONN
*I *1130:B I *D OAI21x1_ASAP7_75t_R
*I *1129:Y O *D AOI21x1_ASAP7_75t_R
*CAP
1 *1130:B 0
2 *1129:Y 6.85134e-06
3 *324:14 2.30709e-05
4 *324:8 2.99222e-05
5 *324:14 *766:10 0
6 *1124:B *324:14 3.14574e-06
7 *1129:B *324:8 5.34278e-06
8 *1130:A2 *324:14 6.19506e-06
9 *1131:A *324:14 1.12894e-06
10 *318:10 *324:14 1.98557e-05
*RES
1 *1129:Y *324:8 38.1438 
2 *324:8 *324:14 35.1363 
3 *324:14 *1130:B 17.2 
*END

*D_NET *325 3.79045e-05
*CONN
*I *1131:B I *D OR3x1_ASAP7_75t_R
*I *1130:Y O *D OAI21x1_ASAP7_75t_R
*CAP
1 *1131:B 9.40909e-06
2 *1130:Y 9.40909e-06
3 *1130:A2 *1131:B 1.95129e-06
4 *1131:A *1131:B 1.24225e-05
5 *1131:C *1131:B 4.7125e-06
*RES
1 *1130:Y *1131:B 41.3527 
*END

*D_NET *326 3.81036e-05
*CONN
*I *1142:A2 I *D AO32x1_ASAP7_75t_R
*I *1139:Y O *D OR2x2_ASAP7_75t_R
*CAP
1 *1142:A2 4.63152e-06
2 *1139:Y 5.44155e-06
3 *326:8 1.00731e-05
4 *1142:A2 *1142:A3 1.44167e-06
5 *326:8 *790:10 5.79724e-07
6 *1141:A1 *326:8 3.32524e-06
7 *291:42 *326:8 8.45637e-06
8 *320:27 *326:8 3.47607e-06
9 *320:31 *1142:A2 6.7842e-07
*RES
1 *1139:Y *326:8 40.0317 
2 *326:8 *1142:A2 37.0741 
*END

*D_NET *327 0.000120925
*CONN
*I *1142:A3 I *D AO32x1_ASAP7_75t_R
*I *1140:Y O *D OA211x2_ASAP7_75t_R
*CAP
1 *1142:A3 1.57238e-06
2 *1140:Y 1.88393e-05
3 *327:18 2.90566e-05
4 *327:10 4.63235e-05
5 *327:10 *1140:A1 2.03526e-06
6 *327:10 *790:40 4.84072e-06
7 *327:18 *773:68 5.07619e-06
8 *1140:C *327:10 1.04475e-06
9 *1142:A2 *1142:A3 1.44167e-06
10 *192:42 *327:10 4.40246e-06
11 *291:42 *327:18 9.1471e-07
12 *320:27 *327:18 1.70708e-06
13 *320:39 *327:10 3.67067e-06
14 *320:52 *327:10 0
*RES
1 *1140:Y *327:10 44.018 
2 *327:10 *327:18 45.2296 
3 *327:18 *1142:A3 35.4697 
*END

*D_NET *328 7.63358e-05
*CONN
*I *1142:B1 I *D AO32x1_ASAP7_75t_R
*I *1141:Y O *D AO21x1_ASAP7_75t_R
*CAP
1 *1142:B1 1.44277e-05
2 *1141:Y 1.01458e-05
3 *328:8 2.45734e-05
4 *1142:B1 *773:68 2.83874e-07
5 *1142:B1 *790:10 0
6 *328:8 *826:14 1.55843e-05
7 *1141:A1 *1142:B1 3.79923e-06
8 *289:53 *1142:B1 0
9 *320:27 *1142:B1 1.89962e-06
10 *320:31 *1142:B1 5.62196e-06
*RES
1 *1141:Y *328:8 41.8876 
2 *328:8 *1142:B1 45.0151 
*END

*D_NET *329 0.000215945
*CONN
*I *1143:A I *D XOR2x2_ASAP7_75t_R
*I *1142:Y O *D AO32x1_ASAP7_75t_R
*CAP
1 *1143:A 0
2 *1142:Y 9.92744e-06
3 *329:18 3.96947e-06
4 *329:12 7.25102e-05
5 *329:8 7.84682e-05
6 *329:8 *764:8 0
7 *329:8 *790:10 2.71272e-05
8 *329:8 *790:29 1.12894e-06
9 *329:12 *1118:A1 0
10 *329:12 *781:27 1.04475e-06
11 *329:18 *780:34 0
12 *1118:A2 *329:12 1.36155e-06
13 *291:42 *329:8 2.04071e-05
*RES
1 *1142:Y *329:8 46.2265 
2 *329:8 *329:12 44.4761 
3 *329:12 *329:18 37.2158 
4 *329:18 *1143:A 17.2 
*END

*D_NET *330 0.000119477
*CONN
*I *1145:B I *D OR2x2_ASAP7_75t_R
*I *1155:A2 I *D OA221x2_ASAP7_75t_R
*I *1144:Y O *D OR3x1_ASAP7_75t_R
*CAP
1 *1145:B 2.25905e-05
2 *1155:A2 1.68177e-05
3 *1144:Y 1.14397e-05
4 *330:8 5.08479e-05
5 *1145:B *1145:A 2.66797e-07
6 *1145:B *761:10 0
7 *1145:B *773:8 4.1009e-06
8 *1155:A2 *1155:B2 2.12481e-06
9 *1155:A2 *341:6 3.53857e-06
10 *330:8 *1155:B2 0
11 *330:8 *761:10 0
12 *330:8 *792:8 0
13 *317:12 *1145:B 2.77657e-06
14 *317:12 *330:8 4.97342e-06
*RES
1 *1144:Y *330:8 43.4107 
2 *330:8 *1155:A2 45.6313 
3 *330:8 *1145:B 48.9573 
*END

*D_NET *331 5.79446e-05
*CONN
*I *1146:B I *D OR2x2_ASAP7_75t_R
*I *1156:A2 I *D OAI21x1_ASAP7_75t_R
*I *1145:Y O *D OR2x2_ASAP7_75t_R
*CAP
1 *1146:B 9.66358e-06
2 *1156:A2 0
3 *1145:Y 1.51108e-05
4 *331:6 2.47744e-05
5 *1156:A1 *1146:B 8.39579e-06
*RES
1 *1145:Y *331:6 26.292 
2 *331:6 *1156:A2 17.2 
3 *331:6 *1146:B 25.2224 
*END

*D_NET *332 5.97702e-05
*CONN
*I *1157:A1 I *D AO32x1_ASAP7_75t_R
*I *1146:Y O *D OR2x2_ASAP7_75t_R
*CAP
1 *1157:A1 6.61777e-06
2 *1146:Y 6.61777e-06
3 *1157:A1 *1157:A2 1.7743e-05
4 *1157:A1 *342:6 2.87917e-05
*RES
1 *1146:Y *1157:A1 42.9572 
*END

*D_NET *333 4.59286e-05
*CONN
*I *1151:C I *D OR4x1_ASAP7_75t_R
*I *1147:Y O *D AND2x2_ASAP7_75t_R
*CAP
1 *1151:C 1.77057e-06
2 *1147:Y 7.08428e-06
3 *333:8 8.85485e-06
4 *333:8 *1143:B 1.03306e-05
5 *333:8 *337:8 5.52807e-07
6 *333:8 *780:34 0
7 *333:8 *792:31 1.34329e-05
8 *314:12 *1151:C 3.90258e-06
*RES
1 *1147:Y *333:8 42.2843 
2 *333:8 *1151:C 35.4697 
*END

*D_NET *334 3.68998e-05
*CONN
*I *1149:A2 I *D OA211x2_ASAP7_75t_R
*I *1148:Y O *D OR2x2_ASAP7_75t_R
*CAP
1 *1149:A2 2.32303e-06
2 *1148:Y 1.17139e-05
3 *334:8 1.40369e-05
4 *334:8 *335:8 0
5 *1149:B *1149:A2 2.20493e-06
6 *311:10 *334:8 6.62106e-06
*RES
1 *1148:Y *334:8 44.537 
2 *334:8 *1149:A2 36.0045 
*END

*D_NET *335 0.000213322
*CONN
*I *1150:A2 I *D OA211x2_ASAP7_75t_R
*I *1551:A I *D BUFx3_ASAP7_75t_R
*I *1149:Y O *D OA211x2_ASAP7_75t_R
*CAP
1 *1150:A2 2.44361e-05
2 *1551:A 8.98507e-06
3 *1149:Y 9.42668e-06
4 *335:16 4.20158e-05
5 *335:14 2.59066e-05
6 *335:8 2.67387e-05
7 *1150:A2 *781:10 2.0895e-06
8 *1551:A *764:8 3.38327e-05
9 *335:16 *764:8 2.54154e-05
10 *188:12 *335:14 8.23084e-06
11 *188:16 *335:8 0
12 *252:23 *1551:A 1.35961e-06
13 *257:34 *1551:A 4.88493e-06
14 *334:8 *335:8 0
*RES
1 *1149:Y *335:8 40.0317 
2 *335:8 *335:14 45.6313 
3 *335:14 *335:16 9.01066 
4 *335:16 *1551:A 45.6633 
5 *335:16 *1150:A2 48.8403 
*END

*D_NET *336 5.89435e-05
*CONN
*I *1151:D I *D OR4x1_ASAP7_75t_R
*I *1150:Y O *D OA211x2_ASAP7_75t_R
*CAP
1 *1151:D 2.0516e-05
2 *1150:Y 1.69465e-06
3 *336:8 2.22107e-05
4 *336:8 *781:27 6.33206e-07
5 *336:8 *787:25 2.19685e-06
6 *289:53 *336:8 3.76935e-06
7 *314:12 *1151:D 7.92271e-06
*RES
1 *1150:Y *336:8 37.2158 
2 *336:8 *1151:D 46.701 
*END

*D_NET *337 8.08459e-05
*CONN
*I *1157:A2 I *D AO32x1_ASAP7_75t_R
*I *1151:Y O *D OR4x1_ASAP7_75t_R
*CAP
1 *1157:A2 6.4343e-06
2 *1151:Y 2.11986e-05
3 *337:8 2.76329e-05
4 *337:8 *780:34 3.95845e-06
5 *337:8 *792:31 0
6 *1157:A1 *1157:A2 1.7743e-05
7 *192:42 *337:8 3.32579e-06
8 *333:8 *337:8 5.52807e-07
*RES
1 *1151:Y *337:8 48.4791 
2 *337:8 *1157:A2 39.7482 
*END

*D_NET *338 1.67053e-05
*CONN
*I *1153:C I *D OA211x2_ASAP7_75t_R
*I *1152:Y O *D INVx1_ASAP7_75t_R
*CAP
1 *1153:C 0
2 *1152:Y 8.06277e-06
3 *338:8 8.06277e-06
4 *338:8 *792:25 5.79724e-07
5 *338:8 *793:10 0
6 *192:16 *338:8 0
*RES
1 *1152:Y *338:8 40.0317 
2 *338:8 *1153:C 34.4 
*END

*D_NET *339 4.86409e-05
*CONN
*I *1157:A3 I *D AO32x1_ASAP7_75t_R
*I *1153:Y O *D OA211x2_ASAP7_75t_R
*CAP
1 *1157:A3 0
2 *1153:Y 1.70752e-05
3 *339:8 1.70752e-05
4 *339:8 *730:8 3.95845e-06
5 *339:8 *792:25 0
6 *339:8 *792:31 1.0532e-05
7 *339:8 *793:10 0
8 *192:29 *339:8 0
9 *192:42 *339:8 0
*RES
1 *1153:Y *339:8 47.3528 
2 *339:8 *1157:A3 34.4 
*END

*D_NET *340 3.89181e-05
*CONN
*I *1155:B1 I *D OA221x2_ASAP7_75t_R
*I *1154:Y O *D OA21x2_ASAP7_75t_R
*CAP
1 *1155:B1 0
2 *1154:Y 1.52344e-05
3 *340:10 1.52344e-05
4 *340:10 *341:10 2.25787e-06
5 *340:10 *773:20 0
6 *340:10 *787:6 5.09299e-06
7 *176:14 *340:10 1.09842e-06
*RES
1 *1154:Y *340:10 43.7754 
2 *340:10 *1155:B1 34.4 
*END

*D_NET *341 0.000178377
*CONN
*I *1156:B I *D OAI21x1_ASAP7_75t_R
*I *1155:Y O *D OA221x2_ASAP7_75t_R
*CAP
1 *1156:B 0
2 *1155:Y 3.66232e-05
3 *341:10 2.9217e-05
4 *341:6 6.58402e-05
5 *341:6 *792:12 4.09005e-05
6 *341:10 *787:17 0
7 *1154:A2 *341:10 0
8 *1155:A2 *341:6 3.53857e-06
9 *176:14 *341:10 0
10 *192:16 *341:10 0
11 *192:29 *341:10 0
12 *320:27 *341:10 0
13 *340:10 *341:10 2.25787e-06
*RES
1 *1155:Y *341:6 36.9885 
2 *341:6 *341:10 35.7845 
3 *341:10 *1156:B 34.4 
*END

*D_NET *342 0.00015905
*CONN
*I *1157:B1 I *D AO32x1_ASAP7_75t_R
*I *1156:Y O *D OAI21x1_ASAP7_75t_R
*CAP
1 *1157:B1 0
2 *1156:Y 3.83038e-05
3 *342:14 8.83331e-06
4 *342:6 4.71371e-05
5 *342:14 *1157:B2 1.67815e-06
6 *342:14 *792:31 1.50385e-05
7 *1156:A1 *342:6 1.92671e-05
8 *1157:A1 *342:6 2.87917e-05
*RES
1 *1156:Y *342:6 35.9189 
2 *342:6 *342:14 41.6078 
3 *342:14 *1157:B1 17.2 
*END

*D_NET *344 3.71645e-05
*CONN
*I *1183:A2 I *D OA21x2_ASAP7_75t_R
*I *1182:Y O *D OA21x2_ASAP7_75t_R
*CAP
1 *1183:A2 1.12667e-05
2 *1182:Y 1.12667e-05
3 *1183:A2 *1183:A1 2.12481e-06
4 *1183:A2 *730:14 5.97163e-06
5 *1183:A2 *792:27 5.85624e-06
6 *1183:A2 *793:16 6.7842e-07
*RES
1 *1182:Y *1183:A2 42.9572 
*END

*D_NET *345 4.85293e-05
*CONN
*I *1553:A I *D BUFx3_ASAP7_75t_R
*I *1185:A1 I *D AO21x1_ASAP7_75t_R
*I *1183:Y O *D OA21x2_ASAP7_75t_R
*CAP
1 *1553:A 1.46076e-05
2 *1185:A1 0
3 *1183:Y 2.7483e-06
4 *345:6 1.73559e-05
5 *1553:A *1185:B 2.20493e-06
6 *1553:A *346:12 3.89037e-06
7 *1553:A *347:10 3.46317e-06
8 *1553:A *763:10 1.73158e-06
9 *1553:A *793:16 1.51653e-06
10 *345:6 *793:16 1.01102e-06
*RES
1 *1183:Y *345:6 19.3393 
2 *345:6 *1185:A1 17.2 
3 *345:6 *1553:A 27.8965 
*END

*D_NET *346 7.76918e-05
*CONN
*I *1185:A2 I *D AO21x1_ASAP7_75t_R
*I *1184:Y O *D OR3x1_ASAP7_75t_R
*CAP
1 *1185:A2 0
2 *1184:Y 0
3 *346:12 3.38276e-05
4 *346:6 3.38276e-05
5 *346:12 *1157:B2 0
6 *346:12 *1184:B 8.3668e-07
7 *346:12 *1538:A 0
8 *346:12 *347:10 2.43534e-06
9 *346:12 *748:10 7.3874e-07
10 *346:12 *793:16 1.04475e-06
11 *1119:B *346:12 1.09067e-06
12 *1553:A *346:12 3.89037e-06
*RES
1 *1184:Y *346:6 34.4 
2 *346:6 *346:12 40.7963 
3 *346:12 *1185:A2 17.2 
*END

*D_NET *347 3.19429e-05
*CONN
*I *1186:B I *D AOI21x1_ASAP7_75t_R
*I *1185:Y O *D AO21x1_ASAP7_75t_R
*CAP
1 *1186:B 0
2 *1185:Y 1.16339e-05
3 *347:10 1.16339e-05
4 *347:10 *731:8 0
5 *347:10 *763:10 2.77657e-06
6 *347:10 *823:28 0
7 *1553:A *347:10 3.46317e-06
8 *346:12 *347:10 2.43534e-06
*RES
1 *1185:Y *347:10 43.354 
2 *347:10 *1186:B 34.4 
*END

*D_NET *351 9.47286e-05
*CONN
*I *1351:B I *D FAx1_ASAP7_75t_R
*I *921:Y O *D INVx1_ASAP7_75t_R
*CAP
1 *1351:B 1.13436e-05
2 *921:Y 1.71175e-05
3 *351:8 2.8461e-05
4 *1351:B *1351:CI 1.82686e-05
5 *1351:B *352:10 1.00799e-05
6 *1351:B *711:51 0
7 *351:8 *352:10 3.68287e-06
8 *351:8 *386:6 5.77516e-06
*RES
1 *921:Y *351:8 42.4224 
2 *351:8 *1351:B 31.2792 
*END

*D_NET *352 5.61712e-05
*CONN
*I *1397:A I *D FAx1_ASAP7_75t_R
*I *954:Y O *D INVx1_ASAP7_75t_R
*CAP
1 *1397:A 9.50699e-06
2 *954:Y 1.0934e-05
3 *352:10 2.0441e-05
4 *352:10 *386:6 1.52651e-06
5 *352:10 *711:51 0
6 *1351:B *352:10 1.00799e-05
7 *351:8 *352:10 3.68287e-06
*RES
1 *954:Y *352:10 44.4803 
2 *352:10 *1397:A 21.746 
*END

*D_NET *353 6.37744e-05
*CONN
*I *1414:A I *D HAxp5_ASAP7_75t_R
*I *891:Y O *D INVx1_ASAP7_75t_R
*CAP
1 *1414:A 0
2 *891:Y 0
3 *353:10 2.27248e-05
4 *353:6 2.27248e-05
5 *353:10 *1226:B 0
6 *353:10 *750:8 1.64213e-05
7 *198:8 *353:10 1.90342e-06
8 *203:8 *353:10 0
*RES
1 *891:Y *353:6 34.4 
2 *353:6 *353:10 35.7845 
3 *353:10 *1414:A 17.2 
*END

*D_NET *354 8.15605e-05
*CONN
*I *1359:CI I *D FAx1_ASAP7_75t_R
*I *899:Y O *D INVx1_ASAP7_75t_R
*CAP
1 *1359:CI 8.87901e-06
2 *899:Y 3.13957e-05
3 *354:8 4.02747e-05
4 *1359:CI *421:16 0
5 *968:A *354:8 1.01102e-06
*RES
1 *899:Y *354:8 47.7706 
2 *354:8 *1359:CI 23.958 
*END

*D_NET *355 4.3182e-05
*CONN
*I *1358:CI I *D FAx1_ASAP7_75t_R
*I *1084:Y O *D INVx1_ASAP7_75t_R
*CAP
1 *1358:CI 0
2 *1084:Y 1.23073e-05
3 *355:10 1.23073e-05
4 *355:10 *1192:B 2.52755e-07
5 *355:10 *1358:A 1.65842e-06
6 *90:8 *355:10 5.37866e-07
7 *91:10 *355:10 3.77762e-06
8 *91:16 *355:10 1.23408e-05
*RES
1 *1084:Y *355:10 44.9018 
2 *355:10 *1358:CI 17.2 
*END

*D_NET *356 5.91756e-05
*CONN
*I *1357:B I *D FAx1_ASAP7_75t_R
*I *1082:Y O *D INVx1_ASAP7_75t_R
*CAP
1 *1357:B 0
2 *1082:Y 1.25649e-05
3 *356:10 1.25649e-05
4 *356:10 *456:10 1.55577e-05
5 *356:10 *804:29 1.692e-05
6 *356:10 *816:53 1.56807e-06
*RES
1 *1082:Y *356:10 43.7754 
2 *356:10 *1357:B 17.2 
*END

*D_NET *357 0.000156603
*CONN
*I *1356:B I *D FAx1_ASAP7_75t_R
*I *1078:Y O *D INVx1_ASAP7_75t_R
*CAP
1 *1356:B 0
2 *1078:Y 2.7769e-05
3 *357:18 3.51545e-05
4 *357:10 6.29235e-05
5 *357:10 *1180:A 1.56713e-06
6 *357:10 *1180:B 1.87234e-05
7 *357:10 *425:10 0
8 *357:10 *813:75 4.94008e-06
9 *357:18 *402:14 4.98688e-08
10 *357:18 *813:75 8.39119e-07
11 *357:18 *836:52 0
12 *37:10 *357:18 4.63616e-06
*RES
1 *1078:Y *357:10 47.4147 
2 *357:10 *357:18 48.9841 
3 *357:18 *1356:B 17.2 
*END

*D_NET *358 1.18517e-05
*CONN
*I *1355:A I *D FAx1_ASAP7_75t_R
*I *1069:Y O *D INVx1_ASAP7_75t_R
*CAP
1 *1355:A 5.92586e-06
2 *1069:Y 5.92586e-06
*RES
1 *1069:Y *1355:A 20.1415 
*END

*D_NET *359 8.94522e-05
*CONN
*I *1354:B I *D FAx1_ASAP7_75t_R
*I *1020:Y O *D INVx1_ASAP7_75t_R
*CAP
1 *1354:B 4.25397e-06
2 *1020:Y 3.86587e-05
3 *359:6 4.29127e-05
4 *1354:B *1354:CI 3.6269e-06
5 *1354:B *459:8 0
6 *1354:B *813:29 0
*RES
1 *1020:Y *359:6 33.7796 
2 *359:6 *1354:B 38.3422 
*END

*D_NET *360 2.27345e-05
*CONN
*I *1353:A I *D FAx1_ASAP7_75t_R
*I *996:Y O *D INVx1_ASAP7_75t_R
*CAP
1 *1353:A 0
2 *996:Y 9.8311e-06
3 *360:10 9.8311e-06
4 *360:10 *1602:A 2.15434e-06
5 *360:10 *416:8 9.17944e-07
6 *30:8 *360:10 0
*RES
1 *996:Y *360:10 40.5098 
2 *360:10 *1353:A 17.2 
*END

*D_NET *361 0.000165631
*CONN
*I *1352:B I *D FAx1_ASAP7_75t_R
*I *860:Y O *D INVx1_ASAP7_75t_R
*CAP
1 *1352:B 1.96229e-05
2 *860:Y 4.4528e-06
3 *361:14 4.00173e-05
4 *361:8 2.48473e-05
5 *1352:B *1352:CI 5.96084e-05
6 *1352:B *708:8 2.83874e-07
7 *1352:B *832:10 1.21742e-05
8 *361:8 *711:51 3.84001e-06
9 *361:14 *832:8 0
10 *42:40 *361:8 7.84772e-07
*RES
1 *860:Y *361:8 37.779 
2 *361:8 *361:14 42.4224 
3 *361:14 *1352:B 39.7266 
*END

*D_NET *363 0.00015466
*CONN
*I *1333:CI I *D FAx1_ASAP7_75t_R
*I *1273:Y O *D AND2x4_ASAP7_75t_R
*CAP
1 *1333:CI 1.10626e-05
2 *1273:Y 1.2413e-05
3 *363:8 2.34755e-05
4 *1333:CI *1333:A 8.06799e-07
5 *363:8 *1273:B 1.02506e-06
6 *40:6 *1333:CI 5.38715e-05
7 *41:10 *1333:CI 5.20058e-05
*RES
1 *1273:Y *363:8 39.2134 
2 *363:8 *1333:CI 36.9108 
*END

*D_NET *364 4.74844e-05
*CONN
*I *1412:B I *D HAxp5_ASAP7_75t_R
*I *1247:Y O *D AND2x4_ASAP7_75t_R
*CAP
1 *1412:B 1.0447e-05
2 *1247:Y 1.12732e-05
3 *364:10 2.17202e-05
4 *1412:B *375:6 2.6298e-06
5 *364:10 *819:16 2.13376e-07
6 *364:10 *852:36 0
7 *198:8 *364:10 6.33206e-07
8 *199:12 *364:10 5.67747e-07
*RES
1 *1247:Y *364:10 40.5098 
2 *364:10 *1412:B 40.2831 
*END

*D_NET *365 2.76428e-05
*CONN
*I *1341:CI I *D FAx1_ASAP7_75t_R
*I *1246:Y O *D AND2x4_ASAP7_75t_R
*CAP
1 *1341:CI 4.39727e-06
2 *1246:Y 8.60984e-06
3 *365:8 1.30071e-05
4 *365:8 *376:8 1.62854e-06
*RES
1 *1246:Y *365:8 41.158 
2 *365:8 *1341:CI 19.6067 
*END

*D_NET *366 0.000106541
*CONN
*I *1340:CI I *D FAx1_ASAP7_75t_R
*I *1245:Y O *D AND2x4_ASAP7_75t_R
*CAP
1 *1340:CI 3.29676e-06
2 *1245:Y 0
3 *366:12 3.40466e-05
4 *366:6 3.07498e-05
5 *1340:CI *388:10 8.24135e-06
6 *366:12 *377:8 0
7 *366:12 *710:18 6.99297e-06
8 *366:12 *802:48 6.33206e-07
9 *366:12 *803:30 0
10 *366:12 *848:33 2.25802e-05
11 *54:10 *1340:CI 0
*RES
1 *1245:Y *366:6 34.4 
2 *366:6 *366:12 38.4019 
3 *366:12 *1340:CI 37.2158 
*END

*D_NET *367 0.000226621
*CONN
*I *1339:CI I *D FAx1_ASAP7_75t_R
*I *1244:Y O *D AND2x4_ASAP7_75t_R
*CAP
1 *1339:CI 1.62891e-05
2 *1244:Y 6.48081e-05
3 *367:6 8.10972e-05
4 *1339:CI *1339:B 0
5 *1339:CI *803:30 3.4722e-06
6 *1339:CI *813:64 0
7 *1339:CI *827:18 1.3043e-05
8 *367:6 *1225:A 1.30594e-05
9 *367:6 *1225:B 9.31704e-06
10 *367:6 *1593:A 5.62196e-06
11 *367:6 *800:14 8.99409e-06
12 *367:6 *802:27 8.82914e-06
13 *367:6 *803:14 2.0895e-06
14 *367:6 *849:6 0
15 *1079:A *1339:CI 0
*RES
1 *1244:Y *367:6 49.8243 
2 *367:6 *1339:CI 48.4791 
*END

*D_NET *368 0.000144257
*CONN
*I *1338:CI I *D FAx1_ASAP7_75t_R
*I *1243:Y O *D AND2x2_ASAP7_75t_R
*CAP
1 *1338:CI 0
2 *1243:Y 2.6038e-05
3 *368:10 1.94674e-05
4 *368:6 4.55054e-05
5 *368:6 *939:A 2.96818e-06
6 *368:6 *939:B 2.80323e-06
7 *368:6 *402:10 5.17782e-06
8 *368:10 *403:10 9.67723e-06
9 *368:10 *458:8 0
10 *368:10 *827:41 0
11 *1070:A *368:6 2.61188e-06
12 *50:6 *368:10 4.34775e-06
13 *51:8 *368:10 2.56601e-05
*RES
1 *1243:Y *368:6 33.7796 
2 *368:6 *368:10 35.7845 
3 *368:10 *1338:CI 17.2 
*END

*D_NET *369 0.000177439
*CONN
*I *1337:CI I *D FAx1_ASAP7_75t_R
*I *1242:Y O *D AND2x4_ASAP7_75t_R
*CAP
1 *1337:CI 1.84085e-05
2 *1242:Y 1.6891e-05
3 *369:16 4.15208e-05
4 *369:10 4.00034e-05
5 *1337:CI *391:8 0
6 *1337:CI *798:46 0
7 *1337:CI *799:28 1.87869e-05
8 *1337:CI *817:25 1.182e-05
9 *1337:CI *817:40 2.66363e-05
10 *369:10 *796:34 0
11 *369:10 *798:27 0
12 *369:10 *798:46 0
13 *369:16 *1198:A 1.44167e-06
14 *369:16 *817:14 1.52651e-06
15 *47:14 *1337:CI 4.03399e-07
16 *49:10 *1337:CI 0
*RES
1 *1242:Y *369:10 43.8321 
2 *369:10 *369:16 47.7706 
3 *369:16 *1337:CI 34.6581 
*END

*D_NET *370 4.08638e-05
*CONN
*I *1336:CI I *D FAx1_ASAP7_75t_R
*I *1241:Y O *D AND2x2_ASAP7_75t_R
*CAP
1 *1336:CI 0
2 *1241:Y 1.78944e-05
3 *370:8 1.78944e-05
4 *370:8 *1179:B 3.99162e-07
5 *370:8 *1336:B 0
6 *370:8 *710:44 4.6759e-06
*RES
1 *1241:Y *370:8 48.4791 
2 *370:8 *1336:CI 17.2 
*END

*D_NET *371 0.000616268
*CONN
*I *1335:CI I *D FAx1_ASAP7_75t_R
*I *1240:Y O *D AND2x2_ASAP7_75t_R
*CAP
1 *1335:CI 1.26914e-06
2 *1240:Y 1.16567e-05
3 *371:36 1.83228e-05
4 *371:24 0.0001248
5 *371:20 0.000116769
6 *371:8 2.06795e-05
7 *371:8 *385:10 0
8 *371:8 *706:63 0
9 *371:8 *706:71 0
10 *371:8 *710:101 2.45028e-06
11 *371:20 *696:43 4.83924e-07
12 *371:20 *706:61 0
13 *371:24 *527:30 4.11499e-05
14 *371:24 *706:26 0
15 *371:24 *710:74 6.27186e-05
16 *371:36 *699:26 2.16086e-06
17 *43:26 *371:24 0.000213807
*RES
1 *1240:Y *371:8 42.7536 
2 *371:8 *371:20 43.1525 
3 *371:20 *371:24 49.4313 
4 *371:24 *371:36 36.4318 
5 *371:36 *1335:CI 35.057 
*END

*D_NET *372 2.08477e-05
*CONN
*I *1334:CI I *D FAx1_ASAP7_75t_R
*I *1239:Y O *D AND2x2_ASAP7_75t_R
*CAP
1 *1334:CI 0
2 *1239:Y 6.28296e-06
3 *372:8 6.28296e-06
4 *372:8 *1334:B 1.67815e-06
5 *372:8 *710:101 0
6 *42:10 *372:8 5.23062e-06
7 *43:8 *372:8 1.37303e-06
*RES
1 *1239:Y *372:8 40.0317 
2 *372:8 *1334:CI 17.2 
*END

*D_NET *373 0.000125481
*CONN
*I *1333:B I *D FAx1_ASAP7_75t_R
*I *1215:Y O *D AND2x4_ASAP7_75t_R
*CAP
1 *1333:B 3.7331e-05
2 *1215:Y 0
3 *373:6 3.7331e-05
4 *1333:B *1194:B 2.71199e-05
5 *1333:B *1195:A 2.03526e-06
6 *1333:B *1215:A 0
7 *1333:B *384:8 1.82832e-06
8 *1333:B *385:10 0
9 *1333:B *703:117 1.4374e-06
10 *1333:B *704:67 1.73917e-06
11 *1333:B *705:79 0
12 *1333:B *708:42 0
13 *1333:B *709:46 1.66587e-05
14 *1333:B *837:53 0
*RES
1 *1215:Y *373:6 34.4 
2 *373:6 *1333:B 48.8347 
*END

*D_NET *374 1.84497e-05
*CONN
*I *1432:B I *D HAxp5_ASAP7_75t_R
*I *1280:Y O *D AND2x2_ASAP7_75t_R
*CAP
1 *1432:B 7.13533e-06
2 *1280:Y 7.13533e-06
3 *1432:B *1280:A 4.17901e-06
*RES
1 *1280:Y *1432:B 39.2134 
*END

*D_NET *375 0.000123583
*CONN
*I *1412:A I *D HAxp5_ASAP7_75t_R
*I *1227:Y O *D AND2x4_ASAP7_75t_R
*CAP
1 *1412:A 0
2 *1227:Y 5.90797e-05
3 *375:6 5.90797e-05
4 *375:6 *851:14 2.79435e-06
5 *1412:B *375:6 2.6298e-06
*RES
1 *1227:Y *375:6 41.2671 
2 *375:6 *1412:A 17.2 
*END

*D_NET *376 4.51503e-05
*CONN
*I *1341:A I *D FAx1_ASAP7_75t_R
*I *1226:Y O *D AND2x4_ASAP7_75t_R
*CAP
1 *1341:A 0
2 *1226:Y 1.6857e-05
3 *376:8 1.6857e-05
4 *376:8 *819:46 0
5 *376:8 *849:10 9.8079e-06
6 *202:8 *376:8 0
7 *203:8 *376:8 0
8 *365:8 *376:8 1.62854e-06
*RES
1 *1226:Y *376:8 47.3528 
2 *376:8 *1341:A 17.2 
*END

*D_NET *377 0.000117755
*CONN
*I *1340:A I *D FAx1_ASAP7_75t_R
*I *1225:Y O *D AND2x4_ASAP7_75t_R
*CAP
1 *1340:A 5.99579e-06
2 *1225:Y 0
3 *377:8 5.37628e-05
4 *377:6 4.7767e-05
5 *1340:A *710:8 1.02506e-06
6 *377:8 *388:10 0
7 *377:8 *710:18 7.29232e-06
8 *377:8 *802:29 0
9 *377:8 *802:48 8.06799e-07
10 *377:8 *810:37 0
11 *377:8 *817:103 1.10561e-06
12 *377:8 *819:46 0
13 *377:8 *848:33 0
14 *366:12 *377:8 0
*RES
1 *1225:Y *377:6 34.4 
2 *377:6 *377:8 34.3531 
3 *377:8 *1340:A 20.6764 
*END

*D_NET *378 6.96412e-05
*CONN
*I *1339:B I *D FAx1_ASAP7_75t_R
*I *1224:Y O *D AND2x4_ASAP7_75t_R
*CAP
1 *1339:B 9.51914e-06
2 *1224:Y 2.19277e-05
3 *378:8 3.14468e-05
4 *378:8 *813:64 0
5 *1079:A *1339:B 6.74764e-06
6 *1339:CI *1339:B 0
*RES
1 *1224:Y *378:8 43.492 
2 *378:8 *1339:B 23.958 
*END

*D_NET *379 0.000250856
*CONN
*I *1338:A I *D FAx1_ASAP7_75t_R
*I *1223:Y O *D AND2x2_ASAP7_75t_R
*CAP
1 *1338:A 5.17436e-05
2 *1223:Y 5.18523e-06
3 *379:10 5.17436e-05
4 *379:8 5.18523e-06
5 *1338:A *1292:B 3.68287e-06
6 *1338:A *1607:A 1.04475e-06
7 *1338:A *403:10 1.22318e-05
8 *1338:A *799:22 2.85951e-06
9 *1338:A *799:34 8.37434e-05
10 *1338:A *817:6 2.03401e-06
11 *1338:A *817:25 3.80537e-06
12 *379:8 *717:10 0
13 *379:8 *799:34 1.02072e-05
14 *47:14 *1338:A 1.73899e-05
*RES
1 *1223:Y *379:8 38.9053 
2 *379:8 *379:10 17.2 
3 *379:10 *1338:A 47.332 
*END

*D_NET *380 1.41596e-05
*CONN
*I *1337:A I *D FAx1_ASAP7_75t_R
*I *1222:Y O *D AND2x4_ASAP7_75t_R
*CAP
1 *1337:A 7.07982e-06
2 *1222:Y 7.07982e-06
*RES
1 *1222:Y *1337:A 21.746 
*END

*D_NET *381 5.28907e-05
*CONN
*I *1336:B I *D FAx1_ASAP7_75t_R
*I *1218:Y O *D AND2x2_ASAP7_75t_R
*CAP
1 *1336:B 1.96345e-05
2 *1218:Y 3.92784e-06
3 *381:8 2.35623e-05
4 *1336:B *798:27 3.90551e-06
5 *381:8 *1241:B 1.86049e-06
6 *370:8 *1336:B 0
*RES
1 *1218:Y *381:8 36.0045 
2 *381:8 *1336:B 32.4055 
*END

*D_NET *382 2.62272e-05
*CONN
*I *1335:B I *D FAx1_ASAP7_75t_R
*I *1217:Y O *D AND2x2_ASAP7_75t_R
*CAP
1 *1335:B 1.31136e-05
2 *1217:Y 1.31136e-05
*RES
1 *1217:Y *1335:B 23.8853 
*END

*D_NET *383 5.7589e-05
*CONN
*I *1334:B I *D FAx1_ASAP7_75t_R
*I *1216:Y O *D AND2x2_ASAP7_75t_R
*CAP
1 *1334:B 1.93867e-05
2 *1216:Y 4.1252e-06
3 *383:8 2.35119e-05
4 *1334:B *1239:B 5.00394e-06
5 *1334:B *837:53 0
6 *42:10 *1334:B 3.88306e-06
7 *372:8 *1334:B 1.67815e-06
*RES
1 *1216:Y *383:8 36.0045 
2 *383:8 *1334:B 32.4055 
*END

*D_NET *384 0.000108044
*CONN
*I *1333:A I *D FAx1_ASAP7_75t_R
*I *1195:Y O *D AND2x4_ASAP7_75t_R
*CAP
1 *1333:A 5.72153e-06
2 *1195:Y 3.23305e-05
3 *384:8 3.8052e-05
4 *1333:A *709:46 1.88253e-06
5 *384:8 *1195:A 2.74224e-05
6 *1333:B *384:8 1.82832e-06
7 *1333:CI *1333:A 8.06799e-07
*RES
1 *1195:Y *384:8 49.9099 
2 *384:8 *1333:A 22.2685 
*END

*D_NET *385 0.000142278
*CONN
*I *1432:A I *D HAxp5_ASAP7_75t_R
*I *1194:Y O *D AND2x2_ASAP7_75t_R
*CAP
1 *1432:A 0
2 *1194:Y 3.74953e-06
3 *385:10 4.34828e-05
4 *385:8 4.72324e-05
5 *385:8 *705:79 2.68251e-06
6 *385:10 *1239:B 2.71878e-05
7 *385:10 *703:117 0
8 *385:10 *703:128 0
9 *385:10 *704:67 0
10 *385:10 *706:71 0
11 *385:10 *710:90 0
12 *385:10 *711:10 5.44247e-06
13 *385:10 *711:51 1.08226e-05
14 *385:10 *789:8 1.67815e-06
15 *1333:B *385:10 0
16 *371:8 *385:10 0
*RES
1 *1194:Y *385:8 36.0045 
2 *385:8 *385:10 38.2953 
3 *385:10 *1432:A 34.4 
*END

*D_NET *386 0.000137781
*CONN
*I *1397:CI I *D FAx1_ASAP7_75t_R
*I *1282:Y O *D AND2x2_ASAP7_75t_R
*CAP
1 *1397:CI 8.26167e-06
2 *1282:Y 3.79781e-05
3 *386:6 4.62397e-05
4 *1397:CI *964:A 1.08938e-05
5 *1397:CI *1351:A 1.08938e-05
6 *386:6 *964:B 6.45454e-06
7 *921:A *386:6 9.75735e-06
8 *351:8 *386:6 5.77516e-06
9 *352:10 *386:6 1.52651e-06
*RES
1 *1282:Y *386:6 43.4064 
2 *386:6 *1397:CI 43.4107 
*END

*D_NET *387 9.44256e-05
*CONN
*I *1341:B I *D FAx1_ASAP7_75t_R
*I *1202:Y O *D AND2x4_ASAP7_75t_R
*CAP
1 *1341:B 1.3844e-05
2 *1202:Y 1.03595e-05
3 *387:16 2.45946e-05
4 *387:10 2.11101e-05
5 *1341:B *519:14 7.9603e-06
6 *387:10 *733:10 9.58671e-06
7 *387:16 *519:8 2.03526e-06
8 *889:A *387:16 0
9 *56:8 *1341:B 1.09067e-06
10 *202:8 *1341:B 3.84449e-06
11 *274:25 *1341:B 0
*RES
1 *1202:Y *387:10 40.4531 
2 *387:10 *387:16 38.1438 
3 *387:16 *1341:B 29.5897 
*END

*D_NET *388 6.24331e-05
*CONN
*I *1340:B I *D FAx1_ASAP7_75t_R
*I *1201:Y O *D AND2x4_ASAP7_75t_R
*CAP
1 *1340:B 0
2 *1201:Y 1.72124e-05
3 *388:10 1.72124e-05
4 *388:10 *817:88 6.53466e-06
5 *388:10 *848:33 1.32322e-05
6 *1340:CI *388:10 8.24135e-06
7 *54:10 *388:10 0
8 *377:8 *388:10 0
*RES
1 *1201:Y *388:10 45.9714 
2 *388:10 *1340:B 17.2 
*END

*D_NET *389 1.16032e-05
*CONN
*I *1339:A I *D FAx1_ASAP7_75t_R
*I *1200:Y O *D AND2x4_ASAP7_75t_R
*CAP
1 *1339:A 0
2 *1200:Y 5.80162e-06
3 *389:8 5.80162e-06
4 *389:8 *803:30 0
5 *1079:A *389:8 0
*RES
1 *1200:Y *389:8 38.9053 
2 *389:8 *1339:A 17.2 
*END

*D_NET *390 0.00016677
*CONN
*I *1338:B I *D FAx1_ASAP7_75t_R
*I *1199:Y O *D AND2x4_ASAP7_75t_R
*CAP
1 *1338:B 1.40799e-05
2 *1199:Y 0
3 *390:6 1.40799e-05
4 *1338:B *403:10 3.10002e-06
5 *1338:B *813:29 6.77515e-05
6 *50:6 *1338:B 6.77588e-05
*RES
1 *1199:Y *390:6 34.4 
2 *390:6 *1338:B 42.1334 
*END

*D_NET *391 1.73792e-05
*CONN
*I *1337:B I *D FAx1_ASAP7_75t_R
*I *1292:Y O *D AND2x4_ASAP7_75t_R
*CAP
1 *1337:B 0
2 *1292:Y 8.12511e-06
3 *391:8 8.12511e-06
4 *1337:CI *391:8 0
5 *49:10 *391:8 1.12894e-06
*RES
1 *1292:Y *391:8 40.0317 
2 *391:8 *1337:B 17.2 
*END

*D_NET *392 1.42776e-05
*CONN
*I *1336:A I *D FAx1_ASAP7_75t_R
*I *1198:Y O *D AND2x2_ASAP7_75t_R
*CAP
1 *1336:A 0
2 *1198:Y 4.14928e-06
3 *392:8 4.14928e-06
4 *392:8 *798:27 5.97901e-06
5 *47:14 *392:8 0
*RES
1 *1198:Y *392:8 38.9053 
2 *392:8 *1336:A 17.2 
*END

*D_NET *393 2.10397e-05
*CONN
*I *1335:A I *D FAx1_ASAP7_75t_R
*I *1197:Y O *D AND2x2_ASAP7_75t_R
*CAP
1 *1335:A 0
2 *1197:Y 3.90735e-06
3 *393:8 3.90735e-06
4 *393:8 *796:19 1.3225e-05
*RES
1 *1197:Y *393:8 38.9053 
2 *393:8 *1335:A 17.2 
*END

*D_NET *394 1.20447e-05
*CONN
*I *1334:A I *D FAx1_ASAP7_75t_R
*I *1196:Y O *D AND2x2_ASAP7_75t_R
*CAP
1 *1334:A 6.02234e-06
2 *1196:Y 6.02234e-06
*RES
1 *1196:Y *1334:A 20.6764 
*END

*D_NET *395 0.000137206
*CONN
*I *1352:A I *D FAx1_ASAP7_75t_R
*I *1309:Y O *D INVx1_ASAP7_75t_R
*CAP
1 *1352:A 3.57599e-05
2 *1309:Y 2.8338e-05
3 *395:8 6.40979e-05
4 *1352:A *1352:CI 0
5 *1352:A *708:8 3.79494e-06
6 *1352:A *708:18 2.9732e-06
7 *1309:A *395:8 0
8 *79:8 *1352:A 2.22736e-06
9 *315:35 *1352:A 1.49407e-08
*RES
1 *1309:Y *395:8 46.701 
2 *395:8 *1352:A 47.0478 
*END

*D_NET *396 8.6925e-05
*CONN
*I *1351:CI I *D FAx1_ASAP7_75t_R
*I *955:Y O *D INVx1_ASAP7_75t_R
*CAP
1 *1351:CI 2.01573e-05
2 *955:Y 0
3 *396:6 2.01573e-05
4 *1351:CI *711:51 0
5 *1351:CI *712:52 7.57041e-06
6 *1351:CI *712:63 2.07715e-05
7 *1351:B *1351:CI 1.82686e-05
8 *238:8 *1351:CI 0
*RES
1 *955:Y *396:6 34.4 
2 *396:6 *1351:CI 40.853 
*END

*D_NET *398 3.81621e-05
*CONN
*I *1414:B I *D HAxp5_ASAP7_75t_R
*I *900:Y O *D INVx1_ASAP7_75t_R
*CAP
1 *1414:B 3.6856e-06
2 *900:Y 1.42242e-05
3 *398:10 1.79098e-05
4 *900:A *398:10 2.34246e-06
*RES
1 *900:Y *398:10 41.5795 
2 *398:10 *1414:B 36.0045 
*END

*D_NET *399 3.75021e-05
*CONN
*I *1359:B I *D FAx1_ASAP7_75t_R
*I *1085:Y O *D INVx1_ASAP7_75t_R
*CAP
1 *1359:B 0
2 *1085:Y 1.56239e-05
3 *399:10 1.56239e-05
4 *399:10 *421:16 1.1211e-07
5 *54:10 *399:10 6.7842e-07
6 *91:16 *399:10 5.19475e-06
7 *92:10 *399:10 2.68933e-07
*RES
1 *1085:Y *399:10 44.1686 
2 *399:10 *1359:B 17.2 
*END

*D_NET *400 7.78127e-05
*CONN
*I *1358:A I *D FAx1_ASAP7_75t_R
*I *1083:Y O *D INVx1_ASAP7_75t_R
*CAP
1 *1358:A 2.16887e-05
2 *1083:Y 1.39984e-05
3 *400:8 3.5687e-05
4 *1358:A *421:8 0
5 *1358:A *816:63 1.12894e-06
6 *1358:A *835:107 0
7 *400:8 *816:63 3.65131e-06
8 *1081:A *1358:A 0
9 *54:10 *1358:A 0
10 *355:10 *1358:A 1.65842e-06
*RES
1 *1083:Y *400:8 40.2831 
2 *400:8 *1358:A 33.5318 
*END

*D_NET *401 4.64168e-05
*CONN
*I *1357:CI I *D FAx1_ASAP7_75t_R
*I *1079:Y O *D INVx1_ASAP7_75t_R
*CAP
1 *1357:CI 0
2 *1079:Y 1.0733e-05
3 *401:18 1.2072e-05
4 *401:10 2.2805e-05
5 *401:18 *421:16 0
6 *401:18 *816:53 8.06799e-07
7 *51:38 *401:18 0
8 *53:18 *401:10 0
9 *53:18 *401:18 0
*RES
1 *1079:Y *401:10 39.1762 
2 *401:10 *401:18 40.426 
3 *401:18 *1357:CI 17.2 
*END

*D_NET *402 0.000298777
*CONN
*I *1356:A I *D FAx1_ASAP7_75t_R
*I *1070:Y O *D INVx1_ASAP7_75t_R
*CAP
1 *1356:A 1.05524e-05
2 *1070:Y 1.6743e-05
3 *402:14 5.41402e-05
4 *402:10 6.03308e-05
5 *1356:A *1331:CI 2.25605e-06
6 *1356:A *446:8 5.34595e-06
7 *402:10 *799:50 3.26873e-05
8 *402:10 *802:8 1.99518e-05
9 *402:10 *817:60 1.49407e-08
10 *402:14 *799:65 2.12019e-06
11 *402:14 *812:38 2.53183e-05
12 *402:14 *812:57 1.49402e-05
13 *402:14 *813:56 9.52895e-06
14 *402:14 *813:75 2.63652e-05
15 *402:14 *852:18 0
16 *37:10 *1356:A 1.32544e-05
17 *357:18 *402:14 4.98688e-08
18 *368:6 *402:10 5.17782e-06
*RES
1 *1070:Y *402:10 49.3132 
2 *402:10 *402:14 37.1123 
3 *402:14 *1356:A 45.194 
*END

*D_NET *403 0.000117207
*CONN
*I *1355:CI I *D FAx1_ASAP7_75t_R
*I *1021:Y O *D INVx1_ASAP7_75t_R
*CAP
1 *1355:CI 0
2 *1021:Y 2.5835e-05
3 *403:18 1.71775e-05
4 *403:10 4.30125e-05
5 *1338:A *403:10 1.22318e-05
6 *1338:B *403:10 3.10002e-06
7 *50:6 *403:10 1.12894e-06
8 *51:8 *403:18 5.04414e-06
9 *84:10 *403:18 0
10 *368:10 *403:10 9.67723e-06
*RES
1 *1021:Y *403:10 46.871 
2 *403:10 *403:18 43.1556 
3 *403:18 *1355:CI 17.2 
*END

*D_NET *404 0.000162973
*CONN
*I *1354:CI I *D FAx1_ASAP7_75t_R
*I *1295:Y O *D INVx1_ASAP7_75t_R
*CAP
1 *1354:CI 1.62765e-05
2 *1295:Y 2.78539e-05
3 *404:8 4.41303e-05
4 *1354:CI *437:10 3.75158e-06
5 *1354:CI *459:8 0
6 *1354:CI *799:8 1.94459e-05
7 *1354:CI *813:29 0
8 *404:8 *426:14 4.78881e-05
9 *1354:B *1354:CI 3.6269e-06
10 *33:10 *1354:CI 0
*RES
1 *1295:Y *404:8 46.701 
2 *404:8 *1354:CI 31.2792 
*END

*D_NET *405 0.000115759
*CONN
*I *1353:CI I *D FAx1_ASAP7_75t_R
*I *861:Y O *D INVx1_ASAP7_75t_R
*CAP
1 *1353:CI 2.54119e-05
2 *861:Y 9.52015e-06
3 *405:8 3.4932e-05
4 *1353:CI *1602:A 1.64764e-06
5 *1353:CI *438:8 0
6 *1353:CI *449:10 0
7 *1353:CI *460:8 1.67007e-05
8 *1353:CI *700:91 5.52807e-07
9 *1353:CI *712:109 2.69941e-05
10 *30:8 *1353:CI 0
*RES
1 *861:Y *405:8 38.1438 
2 *405:8 *1353:CI 39.7266 
*END

*D_NET *406 0.000192847
*CONN
*I *1364:CI I *D FAx1_ASAP7_75t_R
*I *1256:Y O *D INVx1_ASAP7_75t_R
*CAP
1 *1364:CI 5.48069e-06
2 *1256:Y 7.73036e-05
3 *406:6 8.27843e-05
4 *1364:CI *1321:A 1.66066e-05
5 *1364:CI *461:8 1.33369e-06
6 *406:6 *715:38 9.33789e-06
7 *406:6 *807:33 0
8 *100:10 *406:6 0
*RES
1 *1256:Y *406:6 49.8243 
2 *406:6 *1364:CI 40.0317 
*END

*D_NET *407 0.000178697
*CONN
*I *1363:A I *D FAx1_ASAP7_75t_R
*I *946:Y O *D INVx1_ASAP7_75t_R
*CAP
1 *1363:A 1.68162e-05
2 *946:Y 4.89479e-05
3 *407:6 6.57641e-05
4 *1363:A *507:10 0
5 *1363:A *700:77 3.85445e-05
6 *407:6 *1208:B 5.41446e-06
7 *407:6 *496:10 0
8 *13:10 *1363:A 3.20959e-06
*RES
1 *946:Y *407:6 38.0582 
2 *407:6 *1363:A 49.7595 
*END

*D_NET *408 0.000233656
*CONN
*I *1362:CI I *D FAx1_ASAP7_75t_R
*I *952:Y O *D INVx1_ASAP7_75t_R
*CAP
1 *1362:CI 0
2 *952:Y 1.15936e-05
3 *408:18 8.84867e-06
4 *408:10 3.85085e-05
5 *408:8 4.12534e-05
6 *408:8 *858:27 3.89037e-06
7 *408:10 *1324:B 5.79724e-07
8 *408:10 *1324:CI 1.67893e-05
9 *408:10 *1368:B 1.34466e-06
10 *408:10 *442:8 2.38942e-05
11 *408:10 *508:14 3.73775e-05
12 *408:10 *508:18 2.18209e-05
13 *408:10 *705:108 3.17441e-06
14 *408:10 *712:38 0
15 *408:10 *822:54 1.40966e-05
16 *408:10 *858:27 1.9076e-06
17 *408:18 *1368:B 3.6269e-06
18 *408:18 *508:18 1.07573e-06
19 *22:8 *408:10 0
20 *23:10 *408:10 3.87439e-06
*RES
1 *952:Y *408:8 39.2134 
2 *408:8 *408:10 37.169 
3 *408:10 *408:18 39.89 
4 *408:18 *1362:CI 17.2 
*END

*D_NET *409 4.26858e-05
*CONN
*I *1361:A I *D FAx1_ASAP7_75t_R
*I *985:Y O *D INVx1_ASAP7_75t_R
*CAP
1 *1361:A 9.67128e-06
2 *985:Y 4.33669e-06
3 *409:8 1.4008e-05
4 *1361:A *1361:B 9.75645e-07
5 *409:8 *464:12 0
6 *409:8 *713:55 1.36943e-05
*RES
1 *985:Y *409:8 38.9053 
2 *409:8 *1361:A 22.8157 
*END

*D_NET *410 8.79533e-05
*CONN
*I *1360:CI I *D FAx1_ASAP7_75t_R
*I *1287:Y O *D INVx1_ASAP7_75t_R
*CAP
1 *1360:CI 9.54282e-06
2 *1287:Y 2.02828e-05
3 *410:8 2.98256e-05
4 *1360:CI *1360:B 8.46363e-06
5 *410:8 *1635:A 1.59615e-06
6 *410:8 *845:8 1.43369e-05
7 *6:9 *1360:CI 3.90551e-06
*RES
1 *1287:Y *410:8 49.3751 
2 *410:8 *1360:CI 25.0843 
*END

*D_NET *411 4.84833e-05
*CONN
*I *1376:A I *D FAx1_ASAP7_75t_R
*I *1099:Y O *D INVx1_ASAP7_75t_R
*CAP
1 *1376:A 0
2 *1099:Y 2.08606e-05
3 *411:10 2.08606e-05
4 *411:10 *521:10 5.19498e-06
5 *1099:A *411:10 1.56713e-06
6 *197:10 *411:10 0
*RES
1 *1099:Y *411:10 47.0977 
2 *411:10 *1376:A 17.2 
*END

*D_NET *412 1.10087e-05
*CONN
*I *1416:A I *D HAxp5_ASAP7_75t_R
*I *1307:Y O *D INVx1_ASAP7_75t_R
*CAP
1 *1416:A 5.50436e-06
2 *1307:Y 5.50436e-06
*RES
1 *1307:Y *1416:A 37.0741 
*END

*D_NET *413 3.67548e-05
*CONN
*I *1415:A I *D HAxp5_ASAP7_75t_R
*I *1296:Y O *D INVx1_ASAP7_75t_R
*CAP
1 *1415:A 0
2 *1296:Y 1.63982e-05
3 *413:10 1.63982e-05
4 *413:10 *1374:A 0
5 *413:10 *513:10 3.95845e-06
*RES
1 *1296:Y *413:10 42.5924 
2 *413:10 *1415:A 34.4 
*END

*D_NET *414 0.000113767
*CONN
*I *1367:CI I *D FAx1_ASAP7_75t_R
*I *1018:Y O *D INVx1_ASAP7_75t_R
*CAP
1 *1367:CI 8.18604e-06
2 *1018:Y 1.0685e-05
3 *414:16 3.35679e-05
4 *414:10 3.60668e-05
5 *1367:CI *469:10 5.23062e-06
6 *1367:CI *514:8 0
7 *414:10 *514:8 1.48672e-05
8 *414:10 *828:36 2.4204e-06
9 *120:10 *1367:CI 1.12894e-06
10 *121:14 *1367:CI 1.6136e-06
*RES
1 *1018:Y *414:10 43.2123 
2 *414:10 *414:16 44.5617 
3 *414:16 *1367:CI 23.958 
*END

*D_NET *415 5.9612e-05
*CONN
*I *1366:A I *D FAx1_ASAP7_75t_R
*I *994:Y O *D INVx1_ASAP7_75t_R
*CAP
1 *1366:A 0
2 *994:Y 1.76885e-05
3 *415:10 1.76885e-05
4 *415:10 *697:70 5.63292e-06
5 *415:10 *829:14 5.22376e-06
6 *415:10 *829:20 1.33784e-05
*RES
1 *994:Y *415:10 45.8581 
2 *415:10 *1366:A 17.2 
*END

*D_NET *416 0.000246061
*CONN
*I *1365:CI I *D FAx1_ASAP7_75t_R
*I *1268:Y O *D INVx1_ASAP7_75t_R
*CAP
1 *1365:CI 9.64507e-07
2 *1268:Y 2.7981e-06
3 *416:28 8.57953e-05
4 *416:18 9.07149e-05
5 *416:8 8.68224e-06
6 *416:28 *527:30 1.39626e-05
7 *416:28 *552:12 0
8 *416:28 *699:26 3.67986e-05
9 *30:8 *416:8 0
10 *117:16 *416:28 5.42713e-06
11 *360:10 *416:8 9.17944e-07
*RES
1 *1268:Y *416:8 36.1834 
2 *416:8 *416:18 42.4036 
3 *416:18 *416:28 48.5845 
4 *416:28 *1365:CI 35.057 
*END

*D_NET *417 0.000179092
*CONN
*I *1327:B I *D FAx1_ASAP7_75t_R
*I *1177:Y O *D AND2x4_ASAP7_75t_R
*CAP
1 *1327:B 5.35446e-07
2 *1177:Y 9.0539e-06
3 *417:20 6.83406e-05
4 *417:14 6.98204e-05
5 *417:8 1.10691e-05
6 *1327:B *963:A 6.80947e-07
7 *1327:B *1327:CI 1.17606e-06
8 *417:8 *1326:A 0
9 *417:8 *711:51 0
10 *417:20 *527:22 3.35035e-06
11 *417:20 *701:70 1.39449e-05
12 *417:20 *711:66 0
13 *417:20 *712:94 6.97583e-07
14 *43:36 *417:20 4.23087e-07
*RES
1 *1177:Y *417:8 40.8764 
2 *417:8 *417:14 29.487 
3 *417:14 *417:20 48.2985 
4 *417:20 *1327:B 35.2447 
*END

*D_NET *418 0.000157809
*CONN
*I *1326:A I *D FAx1_ASAP7_75t_R
*I *1176:Y O *D AND2x4_ASAP7_75t_R
*CAP
1 *1326:A 2.88567e-05
2 *1176:Y 2.90805e-05
3 *418:8 5.79372e-05
4 *1326:A *429:8 0
5 *1326:A *703:91 1.49407e-08
6 *1326:A *703:99 0
7 *1326:A *710:101 6.31056e-06
8 *1326:A *711:25 1.63988e-05
9 *1326:A *815:8 8.58704e-06
10 *418:8 *1176:A 5.85387e-06
11 *418:8 *815:20 1.44167e-06
12 *418:8 *822:56 3.32794e-06
13 *26:6 *1326:A 0
14 *417:8 *1326:A 0
*RES
1 *1176:Y *418:8 46.701 
2 *418:8 *1326:A 41.9793 
*END

*D_NET *419 6.65449e-05
*CONN
*I *1325:CI I *D FAx1_ASAP7_75t_R
*I *1175:Y O *D AND2x2_ASAP7_75t_R
*CAP
1 *1325:CI 0
2 *1175:Y 1.60889e-05
3 *419:10 1.60889e-05
4 *419:10 *441:8 8.71771e-06
5 *419:10 *703:78 6.38002e-06
6 *419:10 *711:37 1.06925e-05
7 *25:8 *419:10 8.57687e-06
*RES
1 *1175:Y *419:10 49.4638 
2 *419:10 *1325:CI 17.2 
*END

*D_NET *420 0.000116336
*CONN
*I *1324:CI I *D FAx1_ASAP7_75t_R
*I *1283:Y O *D AND2x2_ASAP7_75t_R
*CAP
1 *1324:CI 2.73295e-06
2 *1283:Y 4.47666e-06
3 *420:14 2.70825e-05
4 *420:8 2.88262e-05
5 *1324:CI *508:18 1.67893e-05
6 *420:8 *508:18 0
7 *420:8 *712:46 4.10928e-06
8 *420:14 *508:14 2.12481e-06
9 *420:14 *712:38 1.44167e-06
10 *420:14 *712:42 1.06856e-05
11 *420:14 *822:54 2.52755e-07
12 *420:14 *822:56 1.02506e-06
13 *408:10 *1324:CI 1.67893e-05
*RES
1 *1283:Y *420:8 37.779 
2 *420:8 *420:14 46.701 
3 *420:14 *1324:CI 22.8317 
*END

*D_NET *421 8.63837e-05
*CONN
*I *1359:A I *D FAx1_ASAP7_75t_R
*I *1192:Y O *D AND2x2_ASAP7_75t_R
*CAP
1 *1359:A 0
2 *1192:Y 1.78234e-06
3 *421:16 3.81372e-05
4 *421:8 3.99196e-05
5 *421:16 *835:107 6.43239e-06
6 *421:16 *848:33 0
7 *421:16 *848:52 0
8 *1358:A *421:8 0
9 *1359:CI *421:16 0
10 *54:10 *421:16 0
11 *399:10 *421:16 1.1211e-07
12 *401:18 *421:16 0
*RES
1 *1192:Y *421:8 35.6202 
2 *421:8 *421:16 49.6887 
3 *421:16 *1359:A 17.2 
*END

*D_NET *422 4.68045e-05
*CONN
*I *1411:A I *D HAxp5_ASAP7_75t_R
*I *1191:Y O *D AND2x2_ASAP7_75t_R
*CAP
1 *1411:A 0
2 *1191:Y 2.34022e-05
3 *422:10 2.34022e-05
4 *422:10 *888:A 0
5 *422:10 *433:12 0
*RES
1 *1191:Y *422:10 47.0977 
2 *422:10 *1411:A 34.4 
*END

*D_NET *423 7.25427e-05
*CONN
*I *1332:CI I *D FAx1_ASAP7_75t_R
*I *1190:Y O *D AND2x2_ASAP7_75t_R
*CAP
1 *1332:CI 0
2 *1190:Y 1.61273e-05
3 *423:10 1.61273e-05
4 *423:10 *1332:A 1.07573e-06
5 *423:10 *836:60 2.77657e-06
6 *39:8 *423:10 9.81516e-06
7 *39:14 *423:10 2.66207e-05
*RES
1 *1190:Y *423:10 49.1804 
2 *423:10 *1332:CI 17.2 
*END

*D_NET *424 8.09604e-05
*CONN
*I *1331:CI I *D FAx1_ASAP7_75t_R
*I *1181:Y O *D AND2x4_ASAP7_75t_R
*CAP
1 *1331:CI 1.87096e-05
2 *1181:Y 1.561e-05
3 *424:8 3.43196e-05
4 *1331:CI *435:8 3.22044e-06
5 *1331:CI *446:8 2.35211e-06
6 *1331:CI *813:75 0
7 *1331:CI *827:35 0
8 *1331:CI *836:52 4.49262e-06
9 *1356:A *1331:CI 2.25605e-06
10 *37:10 *1331:CI 0
*RES
1 *1181:Y *424:8 41.3527 
2 *424:8 *1331:CI 32.4055 
*END

*D_NET *425 0.0001477
*CONN
*I *1330:CI I *D FAx1_ASAP7_75t_R
*I *1180:Y O *D AND2x2_ASAP7_75t_R
*CAP
1 *1330:CI 1.289e-05
2 *1180:Y 9.15206e-06
3 *425:16 3.20275e-05
4 *425:10 2.82895e-05
5 *1330:CI *1330:B 2.99991e-05
6 *1330:CI *446:8 4.35576e-08
7 *1330:CI *697:47 2.1664e-06
8 *1330:CI *812:21 0
9 *425:10 *827:41 3.04844e-06
10 *425:16 *436:8 3.00838e-05
11 *357:10 *425:10 0
*RES
1 *1180:Y *425:10 39.3835 
2 *425:10 *425:16 44.5617 
3 *425:16 *1330:CI 29.5897 
*END

*D_NET *426 0.00026668
*CONN
*I *1329:CI I *D FAx1_ASAP7_75t_R
*I *1179:Y O *D AND2x2_ASAP7_75t_R
*CAP
1 *1329:CI 7.00586e-06
2 *1179:Y 1.66096e-05
3 *426:14 4.06921e-05
4 *426:10 5.02958e-05
5 *1329:CI *1329:B 1.59336e-05
6 *1329:CI *1372:CI 8.98879e-06
7 *1329:CI *812:21 1.02642e-06
8 *426:14 *956:B 1.43637e-05
9 *426:14 *437:16 5.68305e-05
10 *426:14 *537:10 5.26236e-06
11 *426:14 *699:47 1.47642e-06
12 *1306:A *426:14 3.06518e-07
13 *404:8 *426:14 4.78881e-05
*RES
1 *1179:Y *426:10 42.6491 
2 *426:10 *426:14 46.6154 
3 *426:14 *1329:CI 42.2843 
*END

*D_NET *427 8.62013e-05
*CONN
*I *1328:CI I *D FAx1_ASAP7_75t_R
*I *1178:Y O *D AND2x2_ASAP7_75t_R
*CAP
1 *1328:CI 0
2 *1178:Y 1.69181e-05
3 *427:10 1.69181e-05
4 *427:10 *701:118 2.02257e-05
5 *427:10 *710:44 2.02257e-05
6 *427:10 *710:48 8.23084e-06
7 *427:10 *711:74 3.68287e-06
*RES
1 *1178:Y *427:10 48.1107 
2 *427:10 *1328:CI 17.2 
*END

*D_NET *428 0.000109888
*CONN
*I *1327:CI I *D FAx1_ASAP7_75t_R
*I *929:Y O *D AND2x4_ASAP7_75t_R
*CAP
1 *1327:CI 1.94232e-05
2 *929:Y 6.68313e-06
3 *428:8 2.61063e-05
4 *1327:CI *963:A 0
5 *1327:CI *439:10 2.22736e-06
6 *1327:CI *527:10 4.03218e-06
7 *1327:CI *702:86 4.61755e-05
8 *1327:CI *711:51 0
9 *1327:CI *712:63 4.06388e-06
10 *428:8 *702:82 0
11 *1327:B *1327:CI 1.17606e-06
*RES
1 *929:Y *428:8 37.0741 
2 *428:8 *1327:CI 38.0371 
*END

*D_NET *429 2.83724e-05
*CONN
*I *1326:B I *D FAx1_ASAP7_75t_R
*I *931:Y O *D AND2x2_ASAP7_75t_R
*CAP
1 *1326:B 0
2 *931:Y 7.21203e-06
3 *429:8 7.21203e-06
4 *429:8 *1397:B 0
5 *429:8 *440:10 5.23062e-06
6 *1326:A *429:8 0
7 *26:6 *429:8 8.71771e-06
*RES
1 *931:Y *429:8 41.158 
2 *429:8 *1326:B 17.2 
*END

*D_NET *430 1.71633e-05
*CONN
*I *1325:B I *D FAx1_ASAP7_75t_R
*I *933:Y O *D AND2x2_ASAP7_75t_R
*CAP
1 *1325:B 0
2 *933:Y 4.95866e-06
3 *430:8 4.95866e-06
4 *25:8 *430:8 7.24596e-06
*RES
1 *933:Y *430:8 40.0317 
2 *430:8 *1325:B 17.2 
*END

*D_NET *431 8.63608e-05
*CONN
*I *1324:B I *D FAx1_ASAP7_75t_R
*I *935:Y O *D AND2x2_ASAP7_75t_R
*CAP
1 *1324:B 2.33729e-05
2 *935:Y 0
3 *431:6 2.33729e-05
4 *1324:B *442:8 8.8135e-06
5 *1324:B *508:14 1.42254e-05
6 *1324:B *705:108 1.20762e-05
7 *1324:B *811:25 0
8 *22:8 *1324:B 3.92018e-06
9 *408:10 *1324:B 5.79724e-07
*RES
1 *935:Y *431:6 34.4 
2 *431:6 *1324:B 40.853 
*END

*D_NET *432 9.8421e-05
*CONN
*I *1434:B I *D HAxp5_ASAP7_75t_R
*I *1274:Y O *D AND2x2_ASAP7_75t_R
*CAP
1 *1434:B 0
2 *1274:Y 4.09165e-05
3 *432:6 4.09165e-05
4 *432:6 *1434:A 1.26378e-06
5 *432:6 *508:8 1.27782e-06
6 *984:A *432:6 1.40465e-05
*RES
1 *1274:Y *432:6 43.4064 
2 *432:6 *1434:B 17.2 
*END

*D_NET *433 0.000114188
*CONN
*I *1411:B I *D HAxp5_ASAP7_75t_R
*I *887:Y O *D AND2x2_ASAP7_75t_R
*CAP
1 *1411:B 0
2 *887:Y 0
3 *433:12 4.54686e-05
4 *433:6 4.54686e-05
5 *433:12 *888:B 0
6 *433:12 *434:8 1.12894e-06
7 *433:12 *533:8 0
8 *1099:A *433:12 1.92671e-05
9 *89:12 *433:12 5.79724e-07
10 *90:14 *433:12 7.58265e-07
11 *197:10 *433:12 1.51653e-06
12 *422:10 *433:12 0
*RES
1 *887:Y *433:6 34.4 
2 *433:6 *433:12 49.0984 
3 *433:12 *1411:B 17.2 
*END

*D_NET *434 4.83427e-05
*CONN
*I *1332:B I *D FAx1_ASAP7_75t_R
*I *888:Y O *D AND2x4_ASAP7_75t_R
*CAP
1 *1332:B 0
2 *888:Y 1.8722e-05
3 *434:8 1.8722e-05
4 *434:8 *888:B 0
5 *434:8 *1332:A 0
6 *434:8 *836:60 9.76987e-06
7 *433:12 *434:8 1.12894e-06
*RES
1 *888:Y *434:8 48.4791 
2 *434:8 *1332:B 17.2 
*END

*D_NET *435 1.46973e-05
*CONN
*I *1331:A I *D FAx1_ASAP7_75t_R
*I *913:Y O *D AND2x4_ASAP7_75t_R
*CAP
1 *1331:A 0
2 *913:Y 5.01382e-06
3 *435:8 5.01382e-06
4 *435:8 *813:75 1.44925e-06
5 *1331:CI *435:8 3.22044e-06
*RES
1 *913:Y *435:8 38.9053 
2 *435:8 *1331:A 17.2 
*END

*D_NET *436 0.000104725
*CONN
*I *1330:B I *D FAx1_ASAP7_75t_R
*I *923:Y O *D AND2x2_ASAP7_75t_R
*CAP
1 *1330:B 1.10891e-05
2 *923:Y 9.62854e-06
3 *436:8 2.07176e-05
4 *1330:B *697:36 1.49407e-08
5 *1330:B *812:21 0
6 *1330:B *812:32 0
7 *436:8 *697:36 2.90209e-08
8 *436:8 *697:47 3.16328e-06
9 *1330:CI *1330:B 2.99991e-05
10 *425:16 *436:8 3.00838e-05
*RES
1 *923:Y *436:8 43.492 
2 *436:8 *1330:B 27.337 
*END

*D_NET *437 0.000173937
*CONN
*I *1329:B I *D FAx1_ASAP7_75t_R
*I *925:Y O *D AND2x4_ASAP7_75t_R
*CAP
1 *1329:B 4.98466e-06
2 *925:Y 8.43105e-06
3 *437:16 3.72764e-05
4 *437:10 4.07227e-05
5 *1329:B *812:21 6.00639e-06
6 *1329:CI *1329:B 1.59336e-05
7 *1354:CI *437:10 3.75158e-06
8 *426:14 *437:16 5.68305e-05
*RES
1 *925:Y *437:10 39.3835 
2 *437:10 *437:16 48.8403 
3 *437:16 *1329:B 22.8317 
*END

*D_NET *438 1.74554e-05
*CONN
*I *1328:B I *D FAx1_ASAP7_75t_R
*I *927:Y O *D AND2x2_ASAP7_75t_R
*CAP
1 *1328:B 0
2 *927:Y 7.23788e-06
3 *438:8 7.23788e-06
4 *438:8 *449:10 1.00809e-06
5 *438:8 *710:44 1.9715e-06
6 *1353:CI *438:8 0
*RES
1 *927:Y *438:8 40.0317 
2 *438:8 *1328:B 17.2 
*END

*D_NET *439 8.41297e-05
*CONN
*I *1327:A I *D FAx1_ASAP7_75t_R
*I *963:Y O *D AND2x4_ASAP7_75t_R
*CAP
1 *1327:A 0
2 *963:Y 3.04824e-05
3 *439:10 3.04824e-05
4 *439:10 *963:A 4.0157e-06
5 *439:10 *527:10 8.52654e-07
6 *439:10 *712:67 1.20167e-05
7 *439:10 *712:84 4.05232e-06
8 *1327:CI *439:10 2.22736e-06
*RES
1 *963:Y *439:10 49.067 
2 *439:10 *1327:A 17.2 
*END

*D_NET *440 3.43719e-05
*CONN
*I *1326:CI I *D FAx1_ASAP7_75t_R
*I *964:Y O *D AND2x2_ASAP7_75t_R
*CAP
1 *1326:CI 0
2 *964:Y 1.11369e-05
3 *440:10 1.11369e-05
4 *440:10 *1397:B 0
5 *950:A *440:10 1.04475e-06
6 *26:6 *440:10 5.82269e-06
7 *429:8 *440:10 5.23062e-06
*RES
1 *964:Y *440:10 42.7625 
2 *440:10 *1326:CI 17.2 
*END

*D_NET *441 3.31275e-05
*CONN
*I *1325:A I *D FAx1_ASAP7_75t_R
*I *965:Y O *D AND2x2_ASAP7_75t_R
*CAP
1 *1325:A 0
2 *965:Y 6.77042e-06
3 *441:8 6.77042e-06
4 *441:8 *965:A 1.1211e-07
5 *441:8 *703:78 9.68114e-06
6 *24:8 *441:8 0
7 *25:8 *441:8 1.07573e-06
8 *419:10 *441:8 8.71771e-06
*RES
1 *965:Y *441:8 42.2843 
2 *441:8 *1325:A 17.2 
*END

*D_NET *442 4.21081e-05
*CONN
*I *1324:A I *D FAx1_ASAP7_75t_R
*I *966:Y O *D AND2x2_ASAP7_75t_R
*CAP
1 *1324:A 0
2 *966:Y 4.43126e-06
3 *442:8 4.43126e-06
4 *1324:B *442:8 8.8135e-06
5 *22:8 *442:8 5.37866e-07
6 *408:10 *442:8 2.38942e-05
*RES
1 *966:Y *442:8 42.2843 
2 *442:8 *1324:A 17.2 
*END

*D_NET *443 1.17736e-05
*CONN
*I *1434:A I *D HAxp5_ASAP7_75t_R
*I *967:Y O *D AND2x2_ASAP7_75t_R
*CAP
1 *1434:A 5.2549e-06
2 *967:Y 5.2549e-06
3 *432:6 *1434:A 1.26378e-06
*RES
1 *967:Y *1434:A 37.0741 
*END

*D_NET *444 0.000562429
*CONN
*I *1436:B I *D HAxp5_ASAP7_75t_R
*I *1275:Y O *D AND2x2_ASAP7_75t_R
*CAP
1 *1436:B 0
2 *1275:Y 1.6508e-06
3 *444:42 1.69827e-06
4 *444:36 9.06711e-05
5 *444:26 0.000126954
6 *444:20 5.64874e-05
7 *444:8 2.01573e-05
8 *444:8 *702:27 0
9 *444:8 *806:8 4.14603e-06
10 *444:20 *703:180 0
11 *444:20 *704:36 2.48299e-06
12 *444:20 *714:44 3.25347e-05
13 *444:20 *822:28 3.43171e-06
14 *444:26 *488:32 3.32475e-05
15 *444:26 *700:24 0.000188967
16 *444:26 *704:24 0
17 *444:36 *488:32 0
18 *444:36 *716:97 0
19 *444:42 *1344:B 0
*RES
1 *1275:Y *444:8 35.8079 
2 *444:8 *444:20 48.0417 
3 *444:20 *444:26 36.0149 
4 *444:26 *444:36 44.5643 
5 *444:36 *444:42 35.4325 
6 *444:42 *1436:B 17.2 
*END

*D_NET *445 5.25844e-05
*CONN
*I *1332:A I *D FAx1_ASAP7_75t_R
*I *937:Y O *D AND2x4_ASAP7_75t_R
*CAP
1 *1332:A 1.67922e-05
2 *937:Y 0
3 *445:6 1.67922e-05
4 *1332:A *1356:CI 7.25627e-06
5 *1332:A *836:60 0
6 *37:10 *1332:A 4.41094e-06
7 *38:10 *1332:A 5.67735e-06
8 *39:8 *1332:A 5.79724e-07
9 *87:10 *1332:A 0
10 *423:10 *1332:A 1.07573e-06
11 *434:8 *1332:A 0
*RES
1 *937:Y *445:6 34.4 
2 *445:6 *1332:A 33.5318 
*END

*D_NET *446 2.57691e-05
*CONN
*I *1331:B I *D FAx1_ASAP7_75t_R
*I *938:Y O *D AND2x4_ASAP7_75t_R
*CAP
1 *1331:B 0
2 *938:Y 9.01373e-06
3 *446:8 9.01373e-06
4 *446:8 *813:75 0
5 *446:8 *836:35 0
6 *1330:CI *446:8 4.35576e-08
7 *1331:CI *446:8 2.35211e-06
8 *1356:A *446:8 5.34595e-06
*RES
1 *938:Y *446:8 41.158 
2 *446:8 *1331:B 17.2 
*END

*D_NET *447 3.88208e-05
*CONN
*I *1330:A I *D FAx1_ASAP7_75t_R
*I *939:Y O *D AND2x2_ASAP7_75t_R
*CAP
1 *1330:A 1.11819e-05
2 *939:Y 1.11819e-05
3 *1330:A *939:A 6.78445e-06
4 *1019:A *1330:A 9.67251e-06
*RES
1 *939:Y *1330:A 44.5617 
*END

*D_NET *448 2.15926e-05
*CONN
*I *1329:A I *D FAx1_ASAP7_75t_R
*I *956:Y O *D AND2x4_ASAP7_75t_R
*CAP
1 *1329:A 0
2 *956:Y 4.1579e-06
3 *448:8 4.1579e-06
4 *448:8 *1372:CI 1.32768e-05
*RES
1 *956:Y *448:8 38.9053 
2 *448:8 *1329:A 17.2 
*END

*D_NET *449 5.27454e-05
*CONN
*I *1328:A I *D FAx1_ASAP7_75t_R
*I *962:Y O *D AND2x2_ASAP7_75t_R
*CAP
1 *1328:A 2.25368e-06
2 *962:Y 1.61744e-05
3 *449:10 1.84281e-05
4 *449:10 *712:109 6.86929e-06
5 *859:A *1328:A 8.01183e-06
6 *1353:CI *449:10 0
7 *438:8 *449:10 1.00809e-06
*RES
1 *962:Y *449:10 43.7188 
2 *449:10 *1328:A 19.6067 
*END

*D_NET *450 0.000132832
*CONN
*I *1352:CI I *D FAx1_ASAP7_75t_R
*I *1257:Y O *D INVx1_ASAP7_75t_R
*CAP
1 *1352:CI 2.09626e-05
2 *1257:Y 1.20622e-05
3 *450:8 3.30248e-05
4 *1352:CI *708:8 6.62106e-06
5 *1257:A *450:8 0
6 *1352:A *1352:CI 0
7 *1352:B *1352:CI 5.96084e-05
8 *79:8 *1352:CI 5.52807e-07
*RES
1 *1257:Y *450:8 39.2134 
2 *450:8 *1352:CI 40.4439 
*END

*D_NET *451 7.6636e-05
*CONN
*I *1351:A I *D FAx1_ASAP7_75t_R
*I *947:Y O *D INVx1_ASAP7_75t_R
*CAP
1 *1351:A 1.75209e-05
2 *947:Y 0
3 *451:6 1.75209e-05
4 *1351:A *964:A 4.93044e-07
5 *1351:A *702:80 1.65842e-06
6 *1351:A *712:52 6.04616e-06
7 *1351:A *712:63 1.76569e-05
8 *1397:CI *1351:A 1.08938e-05
9 *27:10 *1351:A 0
10 *77:14 *1351:A 4.84588e-06
*RES
1 *947:Y *451:6 34.4 
2 *451:6 *1351:A 35.7845 
*END

*D_NET *452 9.02988e-05
*CONN
*I *1397:B I *D FAx1_ASAP7_75t_R
*I *953:Y O *D INVx1_ASAP7_75t_R
*CAP
1 *1397:B 3.93284e-05
2 *953:Y 4.19249e-06
3 *452:8 4.35209e-05
4 *1397:B *712:46 3.25708e-06
5 *12:8 *1397:B 0
6 *26:6 *1397:B 0
7 *429:8 *1397:B 0
8 *440:10 *1397:B 0
*RES
1 *953:Y *452:8 36.0045 
2 *452:8 *1397:B 44.3293 
*END

*D_NET *453 7.20023e-05
*CONN
*I *1368:B I *D FAx1_ASAP7_75t_R
*I *986:Y O *D INVx1_ASAP7_75t_R
*CAP
1 *1368:B 1.61079e-05
2 *986:Y 3.29518e-06
3 *453:8 1.94031e-05
4 *1368:B *463:10 0
5 *1368:B *463:18 1.43424e-05
6 *1368:B *508:18 0
7 *1368:B *518:10 0
8 *1368:B *714:80 4.87068e-06
9 *22:8 *1368:B 8.33296e-06
10 *22:14 *453:8 6.7842e-07
11 *408:10 *1368:B 1.34466e-06
12 *408:18 *1368:B 3.6269e-06
*RES
1 *986:Y *453:8 36.0045 
2 *453:8 *1368:B 33.5318 
*END

*D_NET *454 0.000134012
*CONN
*I *1421:A I *D HAxp5_ASAP7_75t_R
*I *1160:Y O *D INVx1_ASAP7_75t_R
*CAP
1 *1421:A 0
2 *1160:Y 4.16488e-05
3 *454:12 1.61384e-05
4 *454:6 5.77873e-05
5 *454:6 *1585:A 3.81627e-06
6 *454:6 *795:10 0
7 *454:6 *795:14 1.43369e-05
8 *454:12 *555:8 2.83874e-07
9 *454:12 *707:38 0
*RES
1 *1160:Y *454:6 38.0582 
2 *454:6 *454:12 46.2265 
3 *454:12 *1421:A 17.2 
*END

*D_NET *455 4.47193e-05
*CONN
*I *1358:B I *D FAx1_ASAP7_75t_R
*I *1100:Y O *D INVx1_ASAP7_75t_R
*CAP
1 *1358:B 5.50504e-06
2 *1100:Y 1.27433e-05
3 *455:10 1.82484e-05
4 *1080:A *455:10 2.12481e-06
5 *1100:A *1358:B 1.95129e-06
6 *1100:A *455:10 5.19552e-07
7 *90:14 *455:10 3.6269e-06
8 *197:10 *455:10 0
*RES
1 *1100:Y *455:10 42.0859 
2 *455:10 *1358:B 20.6764 
*END

*D_NET *456 6.36959e-05
*CONN
*I *1357:A I *D FAx1_ASAP7_75t_R
*I *1077:Y O *D INVx1_ASAP7_75t_R
*CAP
1 *1357:A 0
2 *1077:Y 1.21049e-05
3 *456:10 1.21049e-05
4 *456:10 *804:29 2.84286e-06
5 *456:10 *814:16 6.7842e-07
6 *456:10 *816:53 2.04071e-05
7 *356:10 *456:10 1.55577e-05
*RES
1 *1077:Y *456:10 45.9714 
2 *456:10 *1357:A 17.2 
*END

*D_NET *457 5.9383e-05
*CONN
*I *1356:CI I *D FAx1_ASAP7_75t_R
*I *1068:Y O *D INVx1_ASAP7_75t_R
*CAP
1 *1356:CI 1.92447e-05
2 *1068:Y 4.22014e-06
3 *457:8 2.34648e-05
4 *1356:CI *698:90 1.4374e-06
5 *1332:A *1356:CI 7.25627e-06
6 *37:10 *1356:CI 3.75971e-06
7 *87:10 *1356:CI 0
*RES
1 *1068:Y *457:8 36.5393 
2 *457:8 *1356:CI 33.5318 
*END

*D_NET *458 2.88907e-05
*CONN
*I *1355:B I *D FAx1_ASAP7_75t_R
*I *1019:Y O *D INVx1_ASAP7_75t_R
*CAP
1 *1355:B 0
2 *1019:Y 6.94513e-06
3 *458:8 6.94513e-06
4 *458:8 *812:21 3.32579e-06
5 *84:10 *458:8 8.71771e-06
6 *85:10 *458:8 2.95693e-06
7 *368:10 *458:8 0
*RES
1 *1019:Y *458:8 41.158 
2 *458:8 *1355:B 17.2 
*END

*D_NET *459 2.39795e-05
*CONN
*I *1354:A I *D FAx1_ASAP7_75t_R
*I *995:Y O *D INVx1_ASAP7_75t_R
*CAP
1 *1354:A 0
2 *995:Y 1.06015e-05
3 *459:8 1.06015e-05
4 *459:8 *812:21 0
5 *1354:B *459:8 0
6 *1354:CI *459:8 0
7 *83:14 *459:8 2.77657e-06
*RES
1 *995:Y *459:8 42.2843 
2 *459:8 *1354:A 17.2 
*END

*D_NET *460 3.39915e-05
*CONN
*I *1353:B I *D FAx1_ASAP7_75t_R
*I *859:Y O *D INVx1_ASAP7_75t_R
*CAP
1 *1353:B 0
2 *859:Y 4.37312e-06
3 *460:8 4.37312e-06
4 *460:8 *1602:A 8.54452e-06
5 *1353:CI *460:8 1.67007e-05
*RES
1 *859:Y *460:8 41.158 
2 *460:8 *1353:B 17.2 
*END

*D_NET *461 2.54422e-05
*CONN
*I *1364:A I *D FAx1_ASAP7_75t_R
*I *1259:Y O *D INVx1_ASAP7_75t_R
*CAP
1 *1364:A 0
2 *1259:Y 7.75595e-06
3 *461:8 7.75595e-06
4 *461:8 *1321:A 0
5 *1364:CI *461:8 1.33369e-06
6 *17:12 *461:8 3.18126e-06
7 *102:8 *461:8 5.41536e-06
*RES
1 *1259:Y *461:8 42.2843 
2 *461:8 *1364:A 17.2 
*END

*D_NET *462 3.50037e-05
*CONN
*I *1363:B I *D FAx1_ASAP7_75t_R
*I *944:Y O *D INVx1_ASAP7_75t_R
*CAP
1 *1363:B 0
2 *944:Y 1.37436e-05
3 *462:10 1.37436e-05
4 *462:10 *507:10 0
5 *462:10 *807:33 0
6 *14:18 *462:10 7.51655e-06
7 *100:10 *462:10 0
*RES
1 *944:Y *462:10 43.8321 
2 *462:10 *1363:B 17.2 
*END

*D_NET *463 6.70732e-05
*CONN
*I *1362:B I *D FAx1_ASAP7_75t_R
*I *942:Y O *D INVx1_ASAP7_75t_R
*CAP
1 *1362:B 0
2 *942:Y 6.14088e-06
3 *463:18 1.97021e-05
4 *463:10 2.5843e-05
5 *463:10 *518:10 1.04475e-06
6 *463:18 *508:18 0
7 *463:18 *702:63 0
8 *1368:B *463:10 0
9 *1368:B *463:18 1.43424e-05
*RES
1 *942:Y *463:10 37.4124 
2 *463:10 *463:18 44.8143 
3 *463:18 *1362:B 17.2 
*END

*D_NET *464 0.000130566
*CONN
*I *1361:B I *D FAx1_ASAP7_75t_R
*I *983:Y O *D INVx1_ASAP7_75t_R
*CAP
1 *1361:B 6.12274e-06
2 *983:Y 5.90618e-06
3 *464:12 4.0719e-05
4 *464:8 4.05024e-05
5 *464:8 *715:82 3.65131e-06
6 *464:12 *702:44 0
7 *464:12 *713:47 1.93263e-05
8 *464:12 *713:55 0
9 *464:12 *845:70 1.70708e-06
10 *1361:A *1361:B 9.75645e-07
11 *243:10 *464:12 1.16555e-05
12 *409:8 *464:12 0
*RES
1 *983:Y *464:8 37.0741 
2 *464:8 *464:12 48.1741 
3 *464:12 *1361:B 3.47636 
*END

*D_NET *465 6.95415e-05
*CONN
*I *1360:B I *D FAx1_ASAP7_75t_R
*I *1137:Y O *D INVx1_ASAP7_75t_R
*CAP
1 *1360:B 3.63527e-06
2 *1137:Y 2.5055e-05
3 *465:8 2.86903e-05
4 *465:8 *1360:A 3.15944e-06
5 *1360:CI *1360:B 8.46363e-06
6 *6:9 *1360:B 5.37866e-07
*RES
1 *1137:Y *465:8 46.701 
2 *465:8 *1360:B 21.1422 
*END

*D_NET *466 4.12475e-05
*CONN
*I *1418:A I *D HAxp5_ASAP7_75t_R
*I *1167:Y O *D INVx1_ASAP7_75t_R
*CAP
1 *1418:A 3.96765e-06
2 *1167:Y 1.66561e-05
3 *466:10 2.06238e-05
4 *466:10 *511:14 0
5 *466:10 *707:20 0
*RES
1 *1167:Y *466:10 41.5228 
2 *466:10 *1418:A 36.0045 
*END

*D_NET *467 1.59419e-05
*CONN
*I *1417:A I *D HAxp5_ASAP7_75t_R
*I *1170:Y O *D INVx1_ASAP7_75t_R
*CAP
1 *1417:A 7.97097e-06
2 *1170:Y 7.97097e-06
*RES
1 *1170:Y *1417:A 38.1438 
*END

*D_NET *468 1.21313e-05
*CONN
*I *1433:A I *D HAxp5_ASAP7_75t_R
*I *1172:Y O *D INVx1_ASAP7_75t_R
*CAP
1 *1433:A 6.06565e-06
2 *1172:Y 6.06565e-06
*RES
1 *1172:Y *1433:A 37.0741 
*END

*D_NET *469 5.30694e-05
*CONN
*I *1367:B I *D FAx1_ASAP7_75t_R
*I *1031:Y O *D INVx1_ASAP7_75t_R
*CAP
1 *1367:B 0
2 *1031:Y 1.89465e-05
3 *469:10 1.89465e-05
4 *1367:CI *469:10 5.23062e-06
5 *109:10 *469:10 9.94583e-06
6 *121:14 *469:10 0
*RES
1 *1031:Y *469:10 48.3941 
2 *469:10 *1367:B 17.2 
*END

*D_NET *470 3.06401e-05
*CONN
*I *1366:B I *D FAx1_ASAP7_75t_R
*I *1000:Y O *D INVx1_ASAP7_75t_R
*CAP
1 *1366:B 0
2 *1000:Y 1.53201e-05
3 *470:10 1.53201e-05
4 *470:10 *515:8 0
5 *470:10 *850:8 0
6 *20:10 *470:10 0
7 *107:10 *470:10 0
*RES
1 *1000:Y *470:10 42.7625 
2 *470:10 *1366:B 17.2 
*END

*D_NET *471 8.75864e-05
*CONN
*I *1365:B I *D FAx1_ASAP7_75t_R
*I *864:Y O *D INVx1_ASAP7_75t_R
*CAP
1 *1365:B 2.0318e-05
2 *864:Y 9.97689e-06
3 *471:8 3.02949e-05
4 *1365:B *1392:CI 0
5 *1365:B *493:40 2.23878e-05
6 *1365:B *504:8 1.99581e-06
7 *19:10 *1365:B 2.613e-06
*RES
1 *864:Y *471:8 39.2134 
2 *471:8 *1365:B 34.6581 
*END

*D_NET *472 8.82944e-05
*CONN
*I *1321:CI I *D FAx1_ASAP7_75t_R
*I *1023:Y O *D AND2x4_ASAP7_75t_R
*CAP
1 *1321:CI 2.68133e-05
2 *1023:Y 0
3 *472:6 2.68133e-05
4 *1321:CI *483:8 8.50184e-06
5 *1321:CI *699:67 2.31481e-05
6 *1321:CI *699:75 3.01803e-06
7 *1321:CI *809:8 0
8 *110:30 *1321:CI 0
*RES
1 *1023:Y *472:6 34.4 
2 *472:6 *1321:CI 39.7266 
*END

*D_NET *473 5.02892e-05
*CONN
*I *1320:CI I *D FAx1_ASAP7_75t_R
*I *1024:Y O *D AND2x4_ASAP7_75t_R
*CAP
1 *1320:CI 0
2 *1024:Y 1.66846e-05
3 *473:8 1.66846e-05
4 *473:8 *1631:A 0
5 *473:8 *484:8 1.692e-05
6 *473:8 *707:49 0
7 *473:8 *791:8 0
*RES
1 *1024:Y *473:8 48.4791 
2 *473:8 *1320:CI 17.2 
*END

*D_NET *474 9.90861e-05
*CONN
*I *1319:CI I *D FAx1_ASAP7_75t_R
*I *1025:Y O *D AND2x2_ASAP7_75t_R
*CAP
1 *1319:CI 1.04815e-05
2 *1025:Y 1.56874e-05
3 *474:10 2.61689e-05
4 *474:10 *554:10 1.45661e-06
5 *474:10 *701:35 0
6 *474:10 *714:80 8.07402e-06
7 *111:14 *474:10 3.72177e-05
*RES
1 *1025:Y *474:10 48.4472 
2 *474:10 *1319:CI 22.8157 
*END

*D_NET *475 0.000101449
*CONN
*I *1318:CI I *D FAx1_ASAP7_75t_R
*I *1026:Y O *D AND2x4_ASAP7_75t_R
*CAP
1 *1318:CI 1.65222e-05
2 *1026:Y 1.94797e-05
3 *475:8 3.60019e-05
4 *1318:CI *1318:B 2.35211e-06
5 *1318:CI *486:8 1.4791e-06
6 *1318:CI *713:33 2.17136e-05
7 *1318:CI *811:25 2.95823e-06
8 *475:8 *1026:B 9.425e-07
*RES
1 *1026:Y *475:8 41.3527 
2 *475:8 *1318:CI 32.4055 
*END

*D_NET *476 3.2991e-05
*CONN
*I *1317:CI I *D FAx1_ASAP7_75t_R
*I *1027:Y O *D AND2x4_ASAP7_75t_R
*CAP
1 *1317:CI 0
2 *1027:Y 4.22378e-06
3 *476:8 4.22378e-06
4 *476:8 *498:8 1.64764e-06
5 *476:8 *702:44 2.06684e-05
6 *9:10 *476:8 2.22736e-06
*RES
1 *1027:Y *476:8 41.158 
2 *476:8 *1317:CI 17.2 
*END

*D_NET *477 0.000138992
*CONN
*I *1316:CI I *D FAx1_ASAP7_75t_R
*I *1028:Y O *D AND2x4_ASAP7_75t_R
*CAP
1 *1316:CI 3.24851e-05
2 *1028:Y 0
3 *477:6 3.24851e-05
4 *1316:CI *1229:B 8.59534e-06
5 *1316:CI *1316:B 4.38472e-06
6 *1316:CI *488:8 0
7 *1316:CI *704:105 4.19815e-06
8 *1316:CI *716:97 0
9 *1316:CI *844:44 5.67747e-07
10 *1316:CI *845:10 2.08157e-05
11 *7:8 *1316:CI 3.54601e-05
*RES
1 *1028:Y *477:6 34.4 
2 *477:6 *1316:CI 49.3005 
*END

*D_NET *478 0.000137623
*CONN
*I *1315:CI I *D FAx1_ASAP7_75t_R
*I *1276:Y O *D AND2x2_ASAP7_75t_R
*CAP
1 *1315:CI 8.25142e-06
2 *1276:Y 5.2336e-06
3 *478:12 5.55903e-05
4 *478:8 5.25725e-05
5 *478:8 *713:10 4.7643e-07
6 *478:12 *490:12 1.5499e-05
*RES
1 *1276:Y *478:8 37.779 
2 *478:8 *478:12 35.9189 
3 *478:12 *1315:CI 40.0317 
*END

*D_NET *479 6.74288e-05
*CONN
*I *1416:B I *D HAxp5_ASAP7_75t_R
*I *1011:Y O *D AND2x2_ASAP7_75t_R
*CAP
1 *1416:B 1.8773e-05
2 *1011:Y 1.44655e-05
3 *479:8 3.32385e-05
4 *1416:B *827:10 9.51745e-07
5 *1416:B *827:70 0
6 *38:16 *1416:B 0
7 *87:10 *1416:B 0
*RES
1 *1011:Y *479:8 40.2831 
2 *479:8 *1416:B 47.3528 
*END

*D_NET *480 4.5211e-05
*CONN
*I *1410:B I *D HAxp5_ASAP7_75t_R
*I *1012:Y O *D AND2x2_ASAP7_75t_R
*CAP
1 *1410:B 0
2 *1012:Y 1.99505e-05
3 *480:10 1.99505e-05
4 *480:10 *1012:A 4.73041e-06
5 *480:10 *827:70 5.79724e-07
*RES
1 *1012:Y *480:10 44.7884 
2 *480:10 *1410:B 34.4 
*END

*D_NET *481 2.98868e-05
*CONN
*I *1323:CI I *D FAx1_ASAP7_75t_R
*I *1013:Y O *D AND2x2_ASAP7_75t_R
*CAP
1 *1323:CI 0
2 *1013:Y 1.18091e-05
3 *481:10 1.18091e-05
4 *481:10 *850:8 0
5 *20:10 *481:10 5.22381e-06
6 *34:13 *481:10 1.04475e-06
*RES
1 *1013:Y *481:10 41.6361 
2 *481:10 *1323:CI 17.2 
*END

*D_NET *482 0.000356088
*CONN
*I *1322:CI I *D FAx1_ASAP7_75t_R
*I *1014:Y O *D AND2x2_ASAP7_75t_R
*CAP
1 *1322:CI 8.40679e-06
2 *1014:Y 4.16842e-07
3 *482:38 2.43596e-05
4 *482:28 8.13364e-05
5 *482:20 7.26042e-05
6 *482:8 7.63741e-06
7 *1322:CI *493:40 3.63973e-06
8 *482:8 *699:75 2.48762e-06
9 *482:8 *713:72 1.17606e-06
10 *482:20 *700:66 0
11 *482:28 *493:30 6.96968e-05
12 *482:28 *541:28 1.74843e-05
13 *482:28 *566:22 1.70997e-07
14 *482:28 *580:28 3.70647e-05
15 *482:28 *698:26 0
16 *482:28 *854:24 1.98069e-05
17 *482:38 *493:40 2.65244e-06
18 *18:10 *1322:CI 7.35063e-07
19 *110:18 *482:20 4.09211e-06
20 *117:16 *482:38 1.12535e-06
21 *117:26 *482:28 1.19483e-06
*RES
1 *1014:Y *482:8 35.2447 
2 *482:8 *482:20 42.5579 
3 *482:20 *482:28 45.3443 
4 *482:28 *482:38 45.9421 
5 *482:38 *1322:CI 23.6764 
*END

*D_NET *483 2.60189e-05
*CONN
*I *1321:B I *D FAx1_ASAP7_75t_R
*I *1234:Y O *D AND2x4_ASAP7_75t_R
*CAP
1 *1321:B 0
2 *1234:Y 8.20934e-06
3 *483:8 8.20934e-06
4 *483:8 *1235:A 0
5 *483:8 *699:67 1.09842e-06
6 *1321:CI *483:8 8.50184e-06
*RES
1 *1234:Y *483:8 42.2843 
2 *483:8 *1321:B 17.2 
*END

*D_NET *484 2.95388e-05
*CONN
*I *1320:B I *D FAx1_ASAP7_75t_R
*I *1233:Y O *D AND2x4_ASAP7_75t_R
*CAP
1 *1320:B 0
2 *1233:Y 6.3094e-06
3 *484:8 6.3094e-06
4 *484:8 *1631:A 0
5 *484:8 *707:49 0
6 *484:8 *707:64 0
7 *473:8 *484:8 1.692e-05
*RES
1 *1233:Y *484:8 41.158 
2 *484:8 *1320:B 17.2 
*END

*D_NET *485 6.93548e-05
*CONN
*I *1319:B I *D FAx1_ASAP7_75t_R
*I *1232:Y O *D AND2x2_ASAP7_75t_R
*CAP
1 *1319:B 1.21904e-05
2 *1232:Y 1.13207e-05
3 *485:8 2.35111e-05
4 *1319:B *701:43 1.57563e-06
5 *1319:B *701:62 9.52884e-07
6 *1319:B *714:80 1.07373e-06
7 *1319:B *714:93 1.49407e-08
8 *485:8 *1232:B 1.38016e-05
9 *485:8 *701:43 1.59615e-06
10 *13:10 *1319:B 0
11 *110:10 *1319:B 7.32095e-07
12 *111:8 *1319:B 2.58558e-06
*RES
1 *1232:Y *485:8 41.3527 
2 *485:8 *1319:B 27.337 
*END

*D_NET *486 1.21578e-05
*CONN
*I *1318:A I *D FAx1_ASAP7_75t_R
*I *1231:Y O *D AND2x4_ASAP7_75t_R
*CAP
1 *1318:A 0
2 *1231:Y 5.33933e-06
3 *486:8 5.33933e-06
4 *1318:CI *486:8 1.4791e-06
*RES
1 *1231:Y *486:8 38.9053 
2 *486:8 *1318:A 17.2 
*END

*D_NET *487 4.44618e-05
*CONN
*I *1317:A I *D FAx1_ASAP7_75t_R
*I *1230:Y O *D AND2x4_ASAP7_75t_R
*CAP
1 *1317:A 1.66056e-05
2 *1230:Y 5.62528e-06
3 *487:8 2.22309e-05
4 *487:8 *701:35 0
5 *487:8 *713:47 0
*RES
1 *1230:Y *487:8 39.4685 
2 *487:8 *1317:A 26.0246 
*END

*D_NET *488 0.000197156
*CONN
*I *1316:A I *D FAx1_ASAP7_75t_R
*I *1229:Y O *D AND2x4_ASAP7_75t_R
*CAP
1 *1316:A 2.9241e-06
2 *1229:Y 1.31633e-06
3 *488:32 5.05308e-05
4 *488:18 5.43129e-05
5 *488:8 8.0225e-06
6 *1316:A *702:44 0
7 *488:18 *704:105 0
8 *488:32 *703:55 3.34628e-05
9 *488:32 *845:35 1.33387e-05
10 *1316:CI *488:8 0
11 *6:9 *488:8 0
12 *444:26 *488:32 3.32475e-05
13 *444:36 *488:32 0
*RES
1 *1229:Y *488:8 35.4325 
2 *488:8 *488:18 42.8595 
3 *488:18 *488:32 46.6412 
4 *488:32 *1316:A 47.344 
*END

*D_NET *489 1.6593e-05
*CONN
*I *1315:B I *D FAx1_ASAP7_75t_R
*I *1308:Y O *D AND2x2_ASAP7_75t_R
*CAP
1 *1315:B 0
2 *1308:Y 7.56825e-06
3 *489:8 7.56825e-06
4 *489:8 *1277:A 1.45651e-06
5 *489:8 *500:8 0
*RES
1 *1308:Y *489:8 40.0317 
2 *489:8 *1315:B 17.2 
*END

*D_NET *490 0.000181591
*CONN
*I *1435:B I *D HAxp5_ASAP7_75t_R
*I *1277:Y O *D AND2x2_ASAP7_75t_R
*CAP
1 *1435:B 0
2 *1277:Y 9.33495e-06
3 *490:18 8.80418e-06
4 *490:12 5.50322e-05
5 *490:8 5.5563e-05
6 *490:18 *501:8 5.80605e-06
7 *4:12 *490:12 3.15514e-05
8 *478:12 *490:12 1.5499e-05
*RES
1 *1277:Y *490:8 40.0317 
2 *490:8 *490:12 49.8243 
3 *490:12 *490:18 41.158 
4 *490:18 *1435:B 17.2 
*END

*D_NET *491 1.18819e-05
*CONN
*I *1410:A I *D HAxp5_ASAP7_75t_R
*I *1237:Y O *D AND2x2_ASAP7_75t_R
*CAP
1 *1410:A 5.94093e-06
2 *1237:Y 5.94093e-06
*RES
1 *1237:Y *1410:A 37.0741 
*END

*D_NET *492 4.37198e-05
*CONN
*I *1323:A I *D FAx1_ASAP7_75t_R
*I *1236:Y O *D AND2x4_ASAP7_75t_R
*CAP
1 *1323:A 1.50483e-05
2 *1236:Y 6.81163e-06
3 *492:8 2.18599e-05
4 *492:8 *503:8 0
5 *492:8 *697:47 0
*RES
1 *1236:Y *492:8 39.4685 
2 *492:8 *1323:A 26.0246 
*END

*D_NET *493 0.000370514
*CONN
*I *1322:B I *D FAx1_ASAP7_75t_R
*I *1235:Y O *D AND2x2_ASAP7_75t_R
*CAP
1 *1322:B 0
2 *1235:Y 1.16086e-06
3 *493:40 2.8924e-05
4 *493:30 8.56741e-05
5 *493:20 7.69312e-05
6 *493:8 2.13419e-05
7 *493:20 *541:28 3.87592e-06
8 *493:20 *807:14 3.91145e-05
9 *493:20 *809:20 4.9328e-06
10 *493:30 *566:22 1.92618e-06
11 *493:30 *698:26 7.12022e-07
12 *493:30 *809:24 0
13 *493:40 *564:16 0
14 *493:40 *698:38 5.84462e-07
15 *1322:CI *493:40 3.63973e-06
16 *1365:B *493:40 2.23878e-05
17 *110:18 *493:20 0
18 *110:30 *493:20 0
19 *117:16 *493:40 5.91419e-06
20 *117:26 *493:30 1.04502e-06
21 *482:28 *493:30 6.96968e-05
22 *482:38 *493:40 2.65244e-06
*RES
1 *1235:Y *493:8 35.057 
2 *493:8 *493:20 49.5097 
3 *493:20 *493:30 47.7271 
4 *493:30 *493:40 44.0678 
5 *493:40 *1322:B 17.2 
*END

*D_NET *494 0.000117744
*CONN
*I *1321:A I *D FAx1_ASAP7_75t_R
*I *1211:Y O *D AND2x4_ASAP7_75t_R
*CAP
1 *1321:A 1.58064e-05
2 *1211:Y 0
3 *494:6 1.58064e-05
4 *1321:A *698:55 6.25154e-05
5 *1321:A *699:67 0
6 *1321:A *807:33 0
7 *1364:CI *1321:A 1.66066e-05
8 *16:8 *1321:A 2.7611e-06
9 *17:12 *1321:A 0
10 *103:8 *1321:A 4.24807e-06
11 *461:8 *1321:A 0
*RES
1 *1211:Y *494:6 34.4 
2 *494:6 *1321:A 38.6003 
*END

*D_NET *495 5.65991e-05
*CONN
*I *1320:A I *D FAx1_ASAP7_75t_R
*I *1302:Y O *D AND2x4_ASAP7_75t_R
*CAP
1 *1320:A 1.88323e-05
2 *1302:Y 8.42697e-06
3 *495:8 2.72593e-05
4 *1320:A *1235:A 1.79289e-07
5 *1320:A *1631:A 0
6 *1320:A *506:10 0
7 *495:8 *801:12 7.72307e-07
8 *15:10 *1320:A 1.12894e-06
*RES
1 *1302:Y *495:8 38.1438 
2 *495:8 *1320:A 30.1528 
*END

*D_NET *496 2.67399e-05
*CONN
*I *1319:A I *D FAx1_ASAP7_75t_R
*I *1208:Y O *D AND2x2_ASAP7_75t_R
*CAP
1 *1319:A 0
2 *1208:Y 1.25518e-05
3 *496:10 1.25518e-05
4 *13:10 *496:10 1.09842e-06
5 *110:10 *496:10 5.37866e-07
6 *407:6 *496:10 0
*RES
1 *1208:Y *496:10 41.5795 
2 *496:10 *1319:A 17.2 
*END

*D_NET *497 8.07978e-05
*CONN
*I *1318:B I *D FAx1_ASAP7_75t_R
*I *1207:Y O *D AND2x4_ASAP7_75t_R
*CAP
1 *1318:B 1.42306e-05
2 *1207:Y 4.70925e-06
3 *497:8 1.89398e-05
4 *1318:B *701:24 5.67747e-07
5 *1318:B *705:121 1.00899e-06
6 *1318:B *811:25 0
7 *1318:CI *1318:B 2.35211e-06
8 *10:6 *1318:B 3.8317e-05
9 *11:8 *1318:B 6.72332e-07
*RES
1 *1207:Y *497:8 36.0045 
2 *497:8 *1318:B 32.4055 
*END

*D_NET *498 2.07975e-05
*CONN
*I *1317:B I *D FAx1_ASAP7_75t_R
*I *1290:Y O *D AND2x4_ASAP7_75t_R
*CAP
1 *1317:B 0
2 *1290:Y 9.02959e-06
3 *498:8 9.02959e-06
4 *498:8 *510:10 0
5 *498:8 *702:44 1.09067e-06
6 *476:8 *498:8 1.64764e-06
*RES
1 *1290:Y *498:8 41.158 
2 *498:8 *1317:B 17.2 
*END

*D_NET *499 0.00011278
*CONN
*I *1316:B I *D FAx1_ASAP7_75t_R
*I *1206:Y O *D AND2x4_ASAP7_75t_R
*CAP
1 *1316:B 2.29195e-05
2 *1206:Y 5.13233e-06
3 *499:8 2.80519e-05
4 *1316:B *510:10 2.66045e-05
5 *1316:B *704:105 1.08476e-05
6 *1316:CI *1316:B 4.38472e-06
7 *7:8 *1316:B 1.48392e-05
*RES
1 *1206:Y *499:8 37.0741 
2 *499:8 *1316:B 40.853 
*END

*D_NET *500 1.16483e-05
*CONN
*I *1315:A I *D FAx1_ASAP7_75t_R
*I *1205:Y O *D AND2x2_ASAP7_75t_R
*CAP
1 *1315:A 0
2 *1205:Y 5.82415e-06
3 *500:8 5.82415e-06
4 *500:8 *806:29 0
5 *489:8 *500:8 0
*RES
1 *1205:Y *500:8 38.9053 
2 *500:8 *1315:A 17.2 
*END

*D_NET *501 4.38768e-05
*CONN
*I *1435:A I *D HAxp5_ASAP7_75t_R
*I *1204:Y O *D AND2x2_ASAP7_75t_R
*CAP
1 *1435:A 0
2 *1204:Y 1.39318e-05
3 *501:8 1.39318e-05
4 *501:8 *806:29 0
5 *258:29 *501:8 1.02072e-05
6 *490:18 *501:8 5.80605e-06
*RES
1 *1204:Y *501:8 46.2265 
2 *501:8 *1435:A 34.4 
*END

*D_NET *502 0.000104244
*CONN
*I *1433:B I *D HAxp5_ASAP7_75t_R
*I *1278:Y O *D AND2x2_ASAP7_75t_R
*CAP
1 *1433:B 5.78184e-06
2 *1278:Y 3.85785e-05
3 *502:8 4.43604e-05
4 *1433:B *511:14 1.5862e-06
5 *502:8 *714:34 1.15318e-06
6 *5:22 *502:8 7.95905e-06
7 *349:56 *1433:B 4.82454e-06
*RES
1 *1278:Y *502:8 48.8403 
2 *502:8 *1433:B 38.9053 
*END

*D_NET *503 2.63744e-05
*CONN
*I *1323:B I *D FAx1_ASAP7_75t_R
*I *1213:Y O *D AND2x2_ASAP7_75t_R
*CAP
1 *1323:B 4.62125e-06
2 *1213:Y 8.56594e-06
3 *503:8 1.31872e-05
4 *503:8 *697:70 0
5 *20:10 *503:8 0
6 *492:8 *503:8 0
*RES
1 *1213:Y *503:8 40.0317 
2 *503:8 *1323:B 19.6067 
*END

*D_NET *504 4.72481e-05
*CONN
*I *1322:A I *D FAx1_ASAP7_75t_R
*I *1212:Y O *D AND2x4_ASAP7_75t_R
*CAP
1 *1322:A 0
2 *1212:Y 1.73773e-05
3 *504:8 1.73773e-05
4 *504:8 *515:8 1.09493e-06
5 *1365:B *504:8 1.99581e-06
6 *18:10 *504:8 0
7 *19:10 *504:8 9.40269e-06
*RES
1 *1212:Y *504:8 47.3528 
2 *504:8 *1322:A 17.2 
*END

*D_NET *505 5.33585e-05
*CONN
*I *1365:A I *D FAx1_ASAP7_75t_R
*I *1260:Y O *D INVx1_ASAP7_75t_R
*CAP
1 *1365:A 2.35237e-05
2 *1260:Y 0
3 *505:6 2.35237e-05
4 *1365:A *698:55 0
5 *1158:A *1365:A 0
6 *103:8 *1365:A 0
7 *103:16 *1365:A 5.73675e-06
8 *105:10 *1365:A 0
9 *114:16 *1365:A 5.74232e-07
*RES
1 *1260:Y *505:6 34.4 
2 *505:6 *1365:A 33.5318 
*END

*D_NET *506 5.92219e-05
*CONN
*I *1364:B I *D FAx1_ASAP7_75t_R
*I *945:Y O *D INVx1_ASAP7_75t_R
*CAP
1 *1364:B 6.17835e-06
2 *945:Y 1.43779e-05
3 *506:10 2.05563e-05
4 *506:10 *699:63 0
5 *506:10 *715:171 3.05118e-08
6 *1320:A *506:10 0
7 *15:14 *506:10 2.27479e-06
8 *102:12 *506:10 1.5804e-05
*RES
1 *945:Y *506:10 47.0977 
2 *506:10 *1364:B 20.6764 
*END

*D_NET *507 3.83166e-05
*CONN
*I *1363:CI I *D FAx1_ASAP7_75t_R
*I *943:Y O *D INVx1_ASAP7_75t_R
*CAP
1 *1363:CI 0
2 *943:Y 1.26648e-05
3 *507:10 1.26648e-05
4 *507:10 *700:77 0
5 *941:A *507:10 8.87763e-06
6 *1363:A *507:10 0
7 *101:8 *507:10 4.10928e-06
8 *462:10 *507:10 0
*RES
1 *943:Y *507:10 44.9585 
2 *507:10 *1363:CI 17.2 
*END

*D_NET *508 0.000225091
*CONN
*I *1362:A I *D FAx1_ASAP7_75t_R
*I *984:Y O *D INVx1_ASAP7_75t_R
*CAP
1 *1362:A 0
2 *984:Y 1.99025e-05
3 *508:18 2.66619e-05
4 *508:14 3.99645e-05
5 *508:8 3.32051e-05
6 *508:14 *705:108 3.88115e-06
7 *508:14 *822:54 2.20493e-06
8 *984:A *508:8 4.57952e-06
9 *1324:B *508:14 1.42254e-05
10 *1324:CI *508:18 1.67893e-05
11 *1368:B *508:18 0
12 *408:10 *508:14 3.73775e-05
13 *408:10 *508:18 2.18209e-05
14 *408:18 *508:18 1.07573e-06
15 *420:8 *508:18 0
16 *420:14 *508:14 2.12481e-06
17 *432:6 *508:8 1.27782e-06
18 *463:18 *508:18 0
*RES
1 *984:Y *508:8 43.492 
2 *508:8 *508:14 33.3334 
3 *508:14 *508:18 44.232 
4 *508:18 *1362:A 17.2 
*END

*D_NET *509 4.11448e-05
*CONN
*I *1361:CI I *D FAx1_ASAP7_75t_R
*I *1138:Y O *D INVx1_ASAP7_75t_R
*CAP
1 *1361:CI 0
2 *1138:Y 2.05724e-05
3 *509:8 2.05724e-05
4 *509:8 *702:44 0
5 *509:8 *795:10 0
*RES
1 *1138:Y *509:8 49.6055 
2 *509:8 *1361:CI 17.2 
*END

*D_NET *510 9.86864e-05
*CONN
*I *1360:A I *D FAx1_ASAP7_75t_R
*I *1168:Y O *D INVx1_ASAP7_75t_R
*CAP
1 *1360:A 2.09125e-05
2 *1168:Y 9.42098e-06
3 *510:10 3.03334e-05
4 *1137:A *1360:A 5.51397e-07
5 *1168:A *510:10 5.41446e-06
6 *1316:B *510:10 2.66045e-05
7 *242:14 *510:10 2.28976e-06
8 *465:8 *1360:A 3.15944e-06
9 *498:8 *510:10 0
*RES
1 *1168:Y *510:10 45.0151 
2 *510:10 *1360:A 29.2336 
*END

*D_NET *511 0.000136571
*CONN
*I *1418:B I *D HAxp5_ASAP7_75t_R
*I *1171:Y O *D INVx1_ASAP7_75t_R
*CAP
1 *1418:B 0
2 *1171:Y 2.37421e-05
3 *511:14 3.20995e-05
4 *511:8 5.58416e-05
5 *511:14 *707:20 0
6 *1433:B *511:14 1.5862e-06
7 *5:22 *511:8 1.01185e-05
8 *6:9 *511:14 1.3183e-05
9 *466:10 *511:14 0
*RES
1 *1171:Y *511:8 43.492 
2 *511:8 *511:14 41.2744 
3 *511:14 *1418:B 17.2 
*END

*D_NET *512 8.31269e-05
*CONN
*I *1417:B I *D HAxp5_ASAP7_75t_R
*I *1173:Y O *D INVx1_ASAP7_75t_R
*CAP
1 *1417:B 1.29013e-05
2 *1173:Y 7.72712e-06
3 *512:8 2.06284e-05
4 *512:8 *818:10 0
5 *208:10 *1417:B 3.17561e-05
6 *208:10 *512:8 4.46363e-06
7 *208:18 *512:8 1.93482e-06
8 *209:10 *1417:B 3.71555e-06
*RES
1 *1173:Y *512:8 40.0317 
2 *512:8 *1417:B 44.5617 
*END

*D_NET *513 2.87046e-05
*CONN
*I *1415:B I *D HAxp5_ASAP7_75t_R
*I *1032:Y O *D INVx1_ASAP7_75t_R
*CAP
1 *1415:B 0
2 *1032:Y 1.22386e-05
3 *513:10 1.22386e-05
4 *513:10 *1374:A 0
5 *513:10 *695:71 2.68933e-07
6 *413:10 *513:10 3.95845e-06
*RES
1 *1032:Y *513:10 42.7625 
2 *513:10 *1415:B 34.4 
*END

*D_NET *514 5.87359e-05
*CONN
*I *1367:A I *D FAx1_ASAP7_75t_R
*I *1001:Y O *D INVx1_ASAP7_75t_R
*CAP
1 *1367:A 4.6348e-06
2 *1001:Y 1.71019e-05
3 *514:8 2.17367e-05
4 *514:8 *1373:B 0
5 *514:8 *1373:CI 1.04585e-07
6 *514:8 *716:36 2.9059e-07
7 *514:8 *828:36 0
8 *1367:CI *514:8 0
9 *414:10 *514:8 1.48672e-05
*RES
1 *1001:Y *514:8 47.3528 
2 *514:8 *1367:A 19.6067 
*END

*D_NET *515 3.84188e-05
*CONN
*I *1366:CI I *D FAx1_ASAP7_75t_R
*I *865:Y O *D INVx1_ASAP7_75t_R
*CAP
1 *1366:CI 0
2 *865:Y 1.8662e-05
3 *515:8 1.8662e-05
4 *515:8 *697:70 0
5 *470:10 *515:8 0
6 *504:8 *515:8 1.09493e-06
*RES
1 *865:Y *515:8 49.6055 
2 *515:8 *1366:CI 17.2 
*END

*D_NET *516 1.81542e-05
*CONN
*I *1370:A I *D FAx1_ASAP7_75t_R
*I *1254:Y O *D INVx1_ASAP7_75t_R
*CAP
1 *1370:A 0
2 *1254:Y 4.79686e-06
3 *516:8 4.79686e-06
4 *516:8 *715:42 2.22736e-06
5 *43:40 *516:8 0
6 *78:30 *516:8 1.23321e-06
7 *112:8 *516:8 5.09995e-06
*RES
1 *1254:Y *516:8 38.9053 
2 *516:8 *1370:A 17.2 
*END

*D_NET *517 1.38493e-05
*CONN
*I *1369:A I *D FAx1_ASAP7_75t_R
*I *919:Y O *D INVx1_ASAP7_75t_R
*CAP
1 *1369:A 0
2 *919:Y 5.74379e-06
3 *517:8 5.74379e-06
4 *517:8 *1369:CI 8.96443e-07
5 *517:8 *528:8 0
6 *43:40 *517:8 3.36331e-07
7 *113:8 *517:8 1.12894e-06
*RES
1 *919:Y *517:8 38.9053 
2 *517:8 *1369:A 17.2 
*END

*D_NET *518 3.53118e-05
*CONN
*I *1368:A I *D FAx1_ASAP7_75t_R
*I *950:Y O *D INVx1_ASAP7_75t_R
*CAP
1 *1368:A 0
2 *950:Y 1.71335e-05
3 *518:10 1.71335e-05
4 *1368:B *518:10 0
5 *463:10 *518:10 1.04475e-06
*RES
1 *950:Y *518:10 45.2382 
2 *518:10 *1368:A 17.2 
*END

*D_NET *519 8.44413e-05
*CONN
*I *1420:A I *D HAxp5_ASAP7_75t_R
*I *889:Y O *D INVx1_ASAP7_75t_R
*CAP
1 *1420:A 0
2 *889:Y 5.07106e-06
3 *519:14 2.18372e-05
4 *519:8 2.69083e-05
5 *519:14 *733:10 2.06293e-05
6 *519:14 *817:123 0
7 *1341:B *519:14 7.9603e-06
8 *387:16 *519:8 2.03526e-06
*RES
1 *889:Y *519:8 37.0741 
2 *519:8 *519:14 32.8836 
3 *519:14 *1420:A 17.2 
*END

*D_NET *520 3.1073e-05
*CONN
*I *1419:A I *D HAxp5_ASAP7_75t_R
*I *897:Y O *D INVx1_ASAP7_75t_R
*CAP
1 *1419:A 0
2 *897:Y 1.55365e-05
3 *520:10 1.55365e-05
4 *520:10 *532:8 0
5 *213:10 *520:10 0
*RES
1 *897:Y *520:10 45.0151 
2 *520:10 *1419:A 34.4 
*END

*D_NET *521 5.76453e-05
*CONN
*I *1376:B I *D FAx1_ASAP7_75t_R
*I *1080:Y O *D INVx1_ASAP7_75t_R
*CAP
1 *1376:B 0
2 *1080:Y 2.53861e-05
3 *521:10 2.53861e-05
4 *521:10 *533:8 1.67815e-06
5 *411:10 *521:10 5.19498e-06
*RES
1 *1080:Y *521:10 48.5038 
2 *521:10 *1376:B 17.2 
*END

*D_NET *522 0.000125026
*CONN
*I *1375:CI I *D FAx1_ASAP7_75t_R
*I *1075:Y O *D INVx1_ASAP7_75t_R
*CAP
1 *1375:CI 2.73295e-06
2 *1075:Y 2.39633e-05
3 *522:8 2.66963e-05
4 *1375:CI *1375:B 1.67893e-05
5 *1375:CI *560:10 1.67893e-05
6 *522:8 *534:10 0
7 *522:8 *534:16 3.70102e-05
8 *1071:A *522:8 1.04475e-06
*RES
1 *1075:Y *522:8 47.7706 
2 *522:8 *1375:CI 22.8317 
*END

*D_NET *523 7.1672e-05
*CONN
*I *1374:A I *D FAx1_ASAP7_75t_R
*I *1037:Y O *D INVx1_ASAP7_75t_R
*CAP
1 *1374:A 3.15687e-05
2 *1037:Y 0
3 *523:6 3.15687e-05
4 *1374:A *1374:CI 0
5 *1374:A *827:70 5.43728e-06
6 *85:44 *1374:A 3.09718e-06
7 *206:8 *1374:A 0
8 *207:10 *1374:A 0
9 *413:10 *1374:A 0
10 *513:10 *1374:A 0
*RES
1 *1037:Y *523:6 34.4 
2 *523:6 *1374:A 43.1056 
*END

*D_NET *524 0.000329702
*CONN
*I *1373:B I *D FAx1_ASAP7_75t_R
*I *1016:Y O *D INVx1_ASAP7_75t_R
*CAP
1 *1373:B 2.24524e-05
2 *1016:Y 1.31389e-06
3 *524:26 9.33872e-05
4 *524:18 7.43307e-05
5 *524:8 4.70983e-06
6 *1373:B *1373:CI 1.29206e-05
7 *1373:B *716:30 0
8 *1373:B *716:36 2.25526e-05
9 *524:18 *536:18 9.88294e-07
10 *524:18 *854:36 1.04046e-07
11 *524:26 *536:26 6.7487e-05
12 *524:26 *695:46 5.76958e-06
13 *524:26 *854:36 2.36855e-05
14 *84:18 *524:8 0
15 *118:22 *524:26 0
16 *119:18 *524:18 0
17 *119:24 *524:26 0
18 *120:10 *1373:B 0
19 *514:8 *1373:B 0
*RES
1 *1016:Y *524:8 35.4325 
2 *524:8 *524:18 41.8188 
3 *524:18 *524:26 44.6557 
4 *524:26 *1373:B 47.2139 
*END

*D_NET *525 2.22559e-05
*CONN
*I *1372:A I *D FAx1_ASAP7_75t_R
*I *992:Y O *D INVx1_ASAP7_75t_R
*CAP
1 *1372:A 0
2 *992:Y 3.46658e-06
3 *525:8 3.46658e-06
4 *525:8 *1372:CI 1.36943e-05
5 *525:8 *812:21 1.62854e-06
*RES
1 *992:Y *525:8 38.9053 
2 *525:8 *1372:A 17.2 
*END

*D_NET *526 6.71426e-05
*CONN
*I *1371:B I *D FAx1_ASAP7_75t_R
*I *1267:Y O *D INVx1_ASAP7_75t_R
*CAP
1 *1371:B 4.21386e-06
2 *1267:Y 2.79539e-05
3 *526:8 3.21678e-05
4 *1371:B *699:51 2.80709e-06
5 *105:16 *526:8 0
*RES
1 *1267:Y *526:8 47.7706 
2 *526:8 *1371:B 21.1422 
*END

*D_NET *527 0.000408204
*CONN
*I *1371:CI I *D FAx1_ASAP7_75t_R
*I *1255:Y O *D INVx1_ASAP7_75t_R
*CAP
1 *1371:CI 0
2 *1255:Y 6.56148e-06
3 *527:42 6.34888e-06
4 *527:30 9.50295e-05
5 *527:22 0.000101584
6 *527:10 1.94645e-05
7 *527:22 *701:70 6.81873e-07
8 *527:22 *711:66 0
9 *527:30 *699:26 6.25428e-05
10 *527:30 *715:20 0
11 *527:42 *552:12 1.64152e-06
12 *527:42 *566:22 8.09671e-07
13 *527:42 *829:10 1.7975e-06
14 *1327:CI *527:10 4.03218e-06
15 *28:22 *527:22 1.54671e-06
16 *43:36 *527:22 0
17 *115:28 *527:30 3.3065e-05
18 *116:6 *527:42 5.23062e-06
19 *117:8 *527:42 8.55218e-06
20 *371:24 *527:30 4.11499e-05
21 *416:28 *527:30 1.39626e-05
22 *417:20 *527:22 3.35035e-06
23 *439:10 *527:10 8.52654e-07
*RES
1 *1255:Y *527:10 37.4124 
2 *527:10 *527:22 44.3317 
3 *527:22 *527:30 49.7793 
4 *527:30 *527:42 45.4803 
5 *527:42 *1371:CI 17.2 
*END

*D_NET *528 0.000190901
*CONN
*I *1370:CI I *D FAx1_ASAP7_75t_R
*I *920:Y O *D INVx1_ASAP7_75t_R
*CAP
1 *1370:CI 0
2 *920:Y 8.52863e-06
3 *528:16 1.02319e-05
4 *528:12 3.43425e-05
5 *528:8 3.26393e-05
6 *528:8 *702:80 1.07573e-06
7 *528:12 *529:8 2.96566e-05
8 *528:12 *553:8 1.59615e-06
9 *528:16 *1369:B 1.039e-05
10 *528:16 *1369:CI 0
11 *528:16 *715:42 4.93487e-05
12 *919:A *528:12 8.23084e-06
13 *951:A *528:12 5.22376e-07
14 *43:40 *528:16 0
15 *112:8 *528:16 4.3382e-06
16 *517:8 *528:8 0
*RES
1 *920:Y *528:8 40.0317 
2 *528:8 *528:12 36.9885 
3 *528:12 *528:16 33.5318 
4 *528:16 *1370:CI 17.2 
*END

*D_NET *529 8.40463e-05
*CONN
*I *1369:CI I *D FAx1_ASAP7_75t_R
*I *951:Y O *D INVx1_ASAP7_75t_R
*CAP
1 *1369:CI 1.2303e-05
2 *951:Y 9.81383e-06
3 *529:8 2.21168e-05
4 *1369:CI *1369:B 0
5 *43:40 *1369:CI 3.25592e-06
6 *113:8 *1369:CI 6.0036e-06
7 *517:8 *1369:CI 8.96443e-07
8 *528:12 *529:8 2.96566e-05
9 *528:16 *1369:CI 0
*RES
1 *951:Y *529:8 43.492 
2 *529:8 *1369:CI 27.337 
*END

*D_NET *531 7.82887e-05
*CONN
*I *1420:B I *D HAxp5_ASAP7_75t_R
*I *898:Y O *D INVx1_ASAP7_75t_R
*CAP
1 *1420:B 0
2 *898:Y 3.91444e-05
3 *531:6 3.91444e-05
*RES
1 *898:Y *531:6 41.8019 
2 *531:6 *1420:B 17.2 
*END

*D_NET *532 2.59228e-05
*CONN
*I *1419:B I *D HAxp5_ASAP7_75t_R
*I *1081:Y O *D INVx1_ASAP7_75t_R
*CAP
1 *1419:B 6.28442e-06
2 *1081:Y 6.67699e-06
3 *532:8 1.29614e-05
4 *520:10 *532:8 0
*RES
1 *1081:Y *532:8 38.9053 
2 *532:8 *1419:B 38.1438 
*END

*D_NET *533 3.88191e-05
*CONN
*I *1376:CI I *D FAx1_ASAP7_75t_R
*I *1076:Y O *D INVx1_ASAP7_75t_R
*CAP
1 *1376:CI 0
2 *1076:Y 1.74568e-05
3 *533:8 1.74568e-05
4 *126:10 *533:8 2.22736e-06
5 *433:12 *533:8 0
6 *521:10 *533:8 1.67815e-06
*RES
1 *1076:Y *533:8 48.4791 
2 *533:8 *1376:CI 17.2 
*END

*D_NET *534 0.000140944
*CONN
*I *1375:B I *D FAx1_ASAP7_75t_R
*I *1038:Y O *D INVx1_ASAP7_75t_R
*CAP
1 *1375:B 7.74599e-06
2 *1038:Y 2.13071e-05
3 *534:16 1.91537e-05
4 *534:10 3.27149e-05
5 *1375:B *560:10 2.83449e-06
6 *1071:A *534:16 2.12481e-06
7 *1075:A *534:10 1.26378e-06
8 *1375:CI *1375:B 1.67893e-05
9 *87:10 *534:10 0
10 *206:8 *534:10 0
11 *522:8 *534:10 0
12 *522:8 *534:16 3.70102e-05
*RES
1 *1038:Y *534:10 46.4212 
2 *534:10 *534:16 45.6313 
3 *534:16 *1375:B 25.0843 
*END

*D_NET *535 6.25968e-05
*CONN
*I *1374:CI I *D FAx1_ASAP7_75t_R
*I *1017:Y O *D INVx1_ASAP7_75t_R
*CAP
1 *1374:CI 1.74209e-05
2 *1017:Y 1.38776e-05
3 *535:8 3.12984e-05
4 *1374:A *1374:CI 0
5 *122:10 *1374:CI 0
*RES
1 *1017:Y *535:8 40.2831 
2 *535:8 *1374:CI 31.2792 
*END

*D_NET *536 0.000299747
*CONN
*I *1373:CI I *D FAx1_ASAP7_75t_R
*I *993:Y O *D INVx1_ASAP7_75t_R
*CAP
1 *1373:CI 1.41001e-05
2 *993:Y 9.79318e-07
3 *536:26 7.74488e-05
4 *536:18 7.36677e-05
5 *536:8 1.12983e-05
6 *536:18 *854:36 2.07514e-06
7 *536:26 *695:46 5.06529e-06
8 *536:26 *809:36 1.05402e-05
9 *536:26 *854:36 2.30716e-05
10 *1373:B *1373:CI 1.29206e-05
11 *84:18 *536:8 0
12 *118:22 *536:26 0
13 *514:8 *1373:CI 1.04585e-07
14 *524:18 *536:18 9.88294e-07
15 *524:26 *536:26 6.7487e-05
*RES
1 *993:Y *536:8 35.057 
2 *536:8 *536:18 45.1616 
3 *536:18 *536:26 46.3288 
4 *536:26 *1373:CI 40.9196 
*END

*D_NET *537 0.000226477
*CONN
*I *1372:CI I *D FAx1_ASAP7_75t_R
*I *1306:Y O *D INVx1_ASAP7_75t_R
*CAP
1 *1372:CI 3.70966e-05
2 *1306:Y 2.77188e-05
3 *537:16 6.1157e-05
4 *537:10 5.17792e-05
5 *1372:CI *563:8 0
6 *1372:CI *812:21 0
7 *1372:CI *829:10 0
8 *537:10 *699:34 3.38221e-06
9 *537:16 *812:8 0
10 *1289:A *537:16 3.10081e-06
11 *1329:CI *1372:CI 8.98879e-06
12 *32:10 *1372:CI 1.02027e-06
13 *119:8 *1372:CI 0
14 *426:14 *537:10 5.26236e-06
15 *448:8 *1372:CI 1.32768e-05
16 *525:8 *1372:CI 1.36943e-05
*RES
1 *1306:Y *537:10 47.9407 
2 *537:10 *537:16 43.492 
3 *537:16 *1372:CI 49.3005 
*END

*D_NET *538 6.49509e-05
*CONN
*I *1349:A I *D FAx1_ASAP7_75t_R
*I *1258:Y O *D INVx1_ASAP7_75t_R
*CAP
1 *1349:A 2.34937e-05
2 *1258:Y 0
3 *538:6 2.34937e-05
4 *1349:A *1392:B 1.99581e-06
5 *1349:A *770:10 1.59676e-05
6 *1349:A *833:60 0
*RES
1 *1258:Y *538:6 34.4 
2 *538:6 *1349:A 34.6581 
*END

*D_NET *539 2.67787e-05
*CONN
*I *1348:A I *D FAx1_ASAP7_75t_R
*I *1189:Y O *D INVx1_ASAP7_75t_R
*CAP
1 *1348:A 0
2 *1189:Y 6.31168e-06
3 *539:8 6.31168e-06
4 *539:8 *1391:CI 5.48463e-06
5 *539:8 *603:10 7.0231e-06
6 *539:8 *614:8 1.64764e-06
*RES
1 *1189:Y *539:8 42.2843 
2 *539:8 *1348:A 17.2 
*END

*D_NET *540 0.000354613
*CONN
*I *1347:A I *D FAx1_ASAP7_75t_R
*I *940:Y O *D INVx1_ASAP7_75t_R
*CAP
1 *1347:A 0
2 *940:Y 2.36415e-06
3 *540:32 2.59966e-05
4 *540:24 8.79274e-05
5 *540:16 9.22166e-05
6 *540:8 3.265e-05
7 *540:8 *552:16 0
8 *540:16 *566:16 4.38311e-05
9 *540:16 *698:61 2.07003e-06
10 *540:16 *854:20 9.28791e-06
11 *540:24 *541:28 0
12 *540:24 *580:28 4.6034e-05
13 *540:32 *1390:A 0
14 *540:32 *580:38 6.34811e-07
15 *540:32 *615:8 6.10236e-07
16 *540:32 *626:18 0
17 *540:32 *716:63 1.09897e-05
18 *540:32 *716:148 0
19 *68:10 *540:32 0
20 *69:8 *540:32 0
*RES
1 *940:Y *540:8 36.1834 
2 *540:8 *540:16 42.8116 
3 *540:16 *540:24 42.4157 
4 *540:24 *540:32 44.4728 
5 *540:32 *1347:A 17.2 
*END

*D_NET *541 0.000348517
*CONN
*I *1346:A I *D FAx1_ASAP7_75t_R
*I *915:Y O *D INVx1_ASAP7_75t_R
*CAP
1 *1346:A 0
2 *915:Y 2.78645e-06
3 *541:40 1.14314e-05
4 *541:28 0.00014064
5 *541:20 0.000137679
6 *541:8 1.12568e-05
7 *541:8 *713:55 0
8 *541:20 *713:63 1.08362e-06
9 *541:28 *580:20 4.73145e-06
10 *541:28 *580:28 6.66167e-06
11 *541:28 *715:64 0
12 *541:28 *809:20 1.36767e-06
13 *541:28 *854:20 0
14 *541:40 *707:49 2.14551e-06
15 *541:40 *716:69 7.16544e-06
16 *110:18 *541:20 2.06888e-07
17 *482:28 *541:28 1.74843e-05
18 *493:20 *541:28 3.87592e-06
19 *540:24 *541:28 0
*RES
1 *915:Y *541:8 35.9956 
2 *541:8 *541:20 42.653 
3 *541:20 *541:28 48.3393 
4 *541:28 *541:40 46.2215 
5 *541:40 *1346:A 17.2 
*END

*D_NET *542 7.68356e-05
*CONN
*I *1345:B I *D FAx1_ASAP7_75t_R
*I *981:Y O *D INVx1_ASAP7_75t_R
*CAP
1 *1345:B 0
2 *981:Y 3.07208e-05
3 *542:10 3.07208e-05
4 *542:10 *1345:A 1.19435e-05
5 *542:10 *606:8 2.35211e-06
6 *542:10 *707:38 1.09842e-06
*RES
1 *981:Y *542:10 49.5735 
2 *542:10 *1345:B 17.2 
*END

*D_NET *543 2.04563e-05
*CONN
*I *1344:A I *D FAx1_ASAP7_75t_R
*I *1135:Y O *D INVx1_ASAP7_75t_R
*CAP
1 *1344:A 0
2 *1135:Y 1.02282e-05
3 *543:10 1.02282e-05
4 *543:10 *607:8 0
5 *543:10 *707:20 0
*RES
1 *1135:Y *543:10 40.5098 
2 *543:10 *1344:A 17.2 
*END

*D_NET *544 7.65595e-05
*CONN
*I *1343:A I *D FAx1_ASAP7_75t_R
*I *1165:Y O *D INVx1_ASAP7_75t_R
*CAP
1 *1343:A 5.53735e-06
2 *1165:Y 1.87767e-05
3 *544:8 2.4314e-05
4 *1343:A *1343:B 3.3563e-06
5 *1343:A *805:10 5.37569e-06
6 *544:8 *883:A 3.65131e-06
7 *544:8 *822:105 7.58265e-07
8 *211:6 *544:8 1.4252e-05
9 *211:12 *1343:A 5.37866e-07
*RES
1 *1165:Y *544:8 48.8403 
2 *544:8 *1343:A 22.8317 
*END

*D_NET *545 1.31629e-05
*CONN
*I *1342:A I *D FAx1_ASAP7_75t_R
*I *1303:Y O *D INVx1_ASAP7_75t_R
*CAP
1 *1342:A 6.58143e-06
2 *1303:Y 6.58143e-06
*RES
1 *1303:Y *1342:A 20.1415 
*END

*D_NET *546 1.81347e-05
*CONN
*I *1398:A I *D FAx1_ASAP7_75t_R
*I *1106:Y O *D INVx1_ASAP7_75t_R
*CAP
1 *1398:A 9.06737e-06
2 *1106:Y 9.06737e-06
*RES
1 *1106:Y *1398:A 21.746 
*END

*D_NET *547 2.50812e-05
*CONN
*I *1396:A I *D FAx1_ASAP7_75t_R
*I *1071:Y O *D INVx1_ASAP7_75t_R
*CAP
1 *1396:A 5.18137e-06
2 *1071:Y 5.18137e-06
3 *1396:A *1396:B 1.47185e-05
*RES
1 *1071:Y *1396:A 21.746 
*END

*D_NET *548 7.722e-05
*CONN
*I *1395:CI I *D FAx1_ASAP7_75t_R
*I *1022:Y O *D INVx1_ASAP7_75t_R
*CAP
1 *1395:CI 0
2 *1022:Y 2.33757e-05
3 *548:18 1.41151e-05
4 *548:10 3.74908e-05
5 *548:10 *1395:A 0
6 *548:10 *561:8 0
7 *1022:A *548:10 7.63254e-07
8 *164:8 *548:10 0
9 *164:8 *548:18 1.47516e-06
*RES
1 *1022:Y *548:10 47.1544 
2 *548:10 *548:18 40.9596 
3 *548:18 *1395:CI 17.2 
*END

*D_NET *549 1.72307e-05
*CONN
*I *1413:A I *D HAxp5_ASAP7_75t_R
*I *998:Y O *D INVx1_ASAP7_75t_R
*CAP
1 *1413:A 8.61537e-06
2 *998:Y 8.61537e-06
*RES
1 *998:Y *1413:A 38.1438 
*END

*D_NET *550 0.000111292
*CONN
*I *1350:A I *D FAx1_ASAP7_75t_R
*I *862:Y O *D INVx1_ASAP7_75t_R
*CAP
1 *1350:A 9.67994e-06
2 *862:Y 2.64369e-05
3 *550:6 3.61168e-05
4 *1350:A *969:B 4.97342e-06
5 *1350:A *828:25 0
6 *1350:A *833:77 0
7 *550:6 *970:A 1.47193e-05
8 *119:32 *1350:A 1.93655e-05
*RES
1 *862:Y *550:6 33.2448 
2 *550:6 *1350:A 43.4107 
*END

*D_NET *551 2.91086e-05
*CONN
*I *1371:A I *D FAx1_ASAP7_75t_R
*I *1289:Y O *D INVx1_ASAP7_75t_R
*CAP
1 *1371:A 0
2 *1289:Y 1.08831e-05
3 *551:10 1.08831e-05
4 *551:10 *699:51 0
5 *1289:A *551:10 7.34247e-06
*RES
1 *1289:Y *551:10 41.5795 
2 *551:10 *1371:A 17.2 
*END

*D_NET *552 0.000319299
*CONN
*I *1370:B I *D FAx1_ASAP7_75t_R
*I *1312:Y O *D INVx1_ASAP7_75t_R
*CAP
1 *1370:B 0
2 *1312:Y 5.24068e-06
3 *552:16 1.97617e-05
4 *552:12 8.03745e-05
5 *552:8 6.58535e-05
6 *552:12 *698:38 1.06042e-05
7 *552:12 *699:34 0
8 *552:12 *699:57 1.8468e-05
9 *552:16 *715:32 6.36702e-07
10 *552:16 *715:38 1.42372e-05
11 *552:16 *715:148 4.4154e-06
12 *1158:A *552:8 0
13 *100:10 *552:16 0
14 *103:16 *552:8 3.92129e-06
15 *114:6 *552:16 8.32229e-05
16 *115:38 *552:12 1.0921e-05
17 *117:16 *552:12 0
18 *416:28 *552:12 0
19 *527:42 *552:12 1.64152e-06
20 *540:8 *552:16 0
*RES
1 *1312:Y *552:8 38.2483 
2 *552:8 *552:12 41.0082 
3 *552:12 *552:16 44.889 
4 *552:16 *1370:B 17.2 
*END

*D_NET *553 7.24609e-05
*CONN
*I *1369:B I *D FAx1_ASAP7_75t_R
*I *941:Y O *D INVx1_ASAP7_75t_R
*CAP
1 *1369:B 1.20715e-05
2 *941:Y 1.70522e-05
3 *553:8 2.91237e-05
4 *1369:B *715:42 2.22736e-06
5 *941:A *553:8 0
6 *1369:CI *1369:B 0
7 *528:12 *553:8 1.59615e-06
8 *528:16 *1369:B 1.039e-05
*RES
1 *941:Y *553:8 41.3527 
2 *553:8 *1369:B 28.4633 
*END

*D_NET *554 5.27106e-05
*CONN
*I *1368:CI I *D FAx1_ASAP7_75t_R
*I *916:Y O *D INVx1_ASAP7_75t_R
*CAP
1 *1368:CI 3.75575e-06
2 *916:Y 9.98363e-06
3 *554:10 1.37394e-05
4 *554:10 *701:35 6.79111e-06
5 *554:10 *713:63 5.52121e-06
6 *554:10 *714:80 0
7 *98:10 *1368:CI 7.83564e-07
8 *98:18 *1368:CI 2.03526e-06
9 *98:18 *554:10 8.06436e-06
10 *99:10 *554:10 5.79724e-07
11 *474:10 *554:10 1.45661e-06
*RES
1 *916:Y *554:10 43.354 
2 *554:10 *1368:CI 19.6067 
*END

*D_NET *555 4.79462e-05
*CONN
*I *1421:B I *D HAxp5_ASAP7_75t_R
*I *982:Y O *D INVx1_ASAP7_75t_R
*CAP
1 *1421:B 1.28661e-05
2 *982:Y 1.0965e-05
3 *555:8 2.38312e-05
4 *454:12 *555:8 2.83874e-07
*RES
1 *982:Y *555:8 42.2843 
2 *555:8 *1421:B 41.3527 
*END

*D_NET *556 2.18243e-05
*CONN
*I *1436:A I *D HAxp5_ASAP7_75t_R
*I *1136:Y O *D INVx1_ASAP7_75t_R
*CAP
1 *1436:A 4.48377e-06
2 *1136:Y 6.12059e-06
3 *556:8 1.06044e-05
4 *1436:A *618:8 6.15528e-07
*RES
1 *1136:Y *556:8 37.779 
2 *556:8 *1436:A 36.0045 
*END

*D_NET *557 5.85474e-05
*CONN
*I *1387:CI I *D FAx1_ASAP7_75t_R
*I *1166:Y O *D INVx1_ASAP7_75t_R
*CAP
1 *1387:CI 2.88703e-05
2 *1166:Y 0
3 *557:6 2.88703e-05
4 *1387:CI *607:8 0
5 *1387:CI *629:8 0
6 *62:8 *1387:CI 8.06799e-07
*RES
1 *1166:Y *557:6 34.4 
2 *557:6 *1387:CI 40.853 
*END

*D_NET *558 0.000239234
*CONN
*I *1422:B I *D HAxp5_ASAP7_75t_R
*I *1169:Y O *D INVx1_ASAP7_75t_R
*CAP
1 *1422:B 6.63521e-06
2 *1169:Y 6.1493e-06
3 *558:16 4.36866e-05
4 *558:12 6.98938e-05
5 *558:8 3.89917e-05
6 *1422:B *630:14 6.7842e-07
7 *558:8 *707:20 0
8 *558:8 *818:38 0
9 *558:12 *818:48 2.2815e-06
10 *558:12 *818:63 5.28609e-06
11 *558:12 *830:73 3.39771e-05
12 *558:12 *837:87 0
13 *558:16 *1343:B 0
14 *558:16 *608:10 7.54709e-06
15 *558:16 *610:8 0
16 *558:16 *622:8 2.83874e-07
17 *558:16 *630:14 6.07185e-06
18 *558:16 *818:63 1.70708e-06
19 *61:8 *558:16 9.94583e-06
20 *170:10 *558:16 6.09878e-06
*RES
1 *1169:Y *558:8 38.0606 
2 *558:8 *558:12 33.2164 
3 *558:12 *558:16 49.582 
4 *558:16 *1422:B 38.1438 
*END

*D_NET *559 0.000171328
*CONN
*I *1437:B I *D HAxp5_ASAP7_75t_R
*I *1107:Y O *D INVx1_ASAP7_75t_R
*CAP
1 *1437:B 0
2 *1107:Y 6.50517e-06
3 *559:12 3.94688e-05
4 *559:8 4.5974e-05
5 *559:8 *818:10 1.69111e-06
6 *559:8 *818:38 6.10236e-07
7 *559:12 *884:B 3.55881e-05
8 *559:12 *1437:A 2.30654e-05
9 *559:12 *707:14 5.7953e-06
10 *559:12 *805:18 6.02341e-06
11 *559:12 *818:10 6.02341e-06
12 *1105:A *559:12 5.82745e-07
13 *209:10 *559:8 0
*RES
1 *1107:Y *559:8 38.9053 
2 *559:8 *559:12 43.4064 
3 *559:12 *1437:B 17.2 
*END

*D_NET *560 5.81616e-05
*CONN
*I *1375:A I *D FAx1_ASAP7_75t_R
*I *1072:Y O *D INVx1_ASAP7_75t_R
*CAP
1 *1375:A 0
2 *1072:Y 1.57417e-05
3 *560:10 1.57417e-05
4 *1071:A *560:10 5.41446e-06
5 *1375:B *560:10 2.83449e-06
6 *1375:CI *560:10 1.67893e-05
7 *124:8 *560:10 1.09067e-06
8 *206:8 *560:10 5.49212e-07
*RES
1 *1072:Y *560:10 48.3941 
2 *560:10 *1375:A 17.2 
*END

*D_NET *561 8.1528e-05
*CONN
*I *1374:B I *D FAx1_ASAP7_75t_R
*I *1288:Y O *D INVx1_ASAP7_75t_R
*CAP
1 *1374:B 1.27534e-05
2 *1288:Y 1.89434e-05
3 *561:8 3.16968e-05
4 *561:8 *1395:A 1.36943e-05
5 *1015:A *1374:B 4.4402e-06
6 *548:10 *561:8 0
*RES
1 *1288:Y *561:8 49.6055 
2 *561:8 *1374:B 26.0246 
*END

*D_NET *562 8.26192e-05
*CONN
*I *1373:A I *D FAx1_ASAP7_75t_R
*I *999:Y O *D INVx1_ASAP7_75t_R
*CAP
1 *1373:A 1.67935e-05
2 *999:Y 6.58696e-06
3 *562:8 2.33805e-05
4 *1373:A *969:A 2.68933e-07
5 *1373:A *1610:A 5.4219e-06
6 *1373:A *589:12 0
7 *1373:A *820:8 1.64348e-06
8 *1373:A *836:8 4.47696e-06
9 *120:10 *1373:A 1.09842e-06
10 *120:16 *1373:A 4.1009e-06
11 *121:14 *1373:A 1.54556e-05
12 *121:14 *562:8 3.3921e-06
*RES
1 *999:Y *562:8 38.1438 
2 *562:8 *1373:A 33.5318 
*END

*D_NET *563 2.04471e-05
*CONN
*I *1372:B I *D FAx1_ASAP7_75t_R
*I *863:Y O *D INVx1_ASAP7_75t_R
*CAP
1 *1372:B 0
2 *863:Y 8.07146e-06
3 *563:8 8.07146e-06
4 *563:8 *829:20 4.3042e-06
5 *1372:CI *563:8 0
*RES
1 *863:Y *563:8 41.158 
2 *563:8 *1372:B 17.2 
*END

*D_NET *564 0.000116499
*CONN
*I *1392:CI I *D FAx1_ASAP7_75t_R
*I *1252:Y O *D INVx1_ASAP7_75t_R
*CAP
1 *1392:CI 7.7563e-06
2 *1252:Y 7.56755e-06
3 *564:16 5.06744e-05
4 *564:10 5.04857e-05
5 *1365:B *1392:CI 0
6 *18:10 *564:10 1.49407e-08
7 *158:10 *1392:CI 0
8 *493:40 *564:16 0
*RES
1 *1252:Y *564:10 37.7878 
2 *564:10 *564:16 47.8192 
3 *564:16 *1392:CI 22.7378 
*END

*D_NET *565 0.000110004
*CONN
*I *1391:A I *D FAx1_ASAP7_75t_R
*I *1187:Y O *D INVx1_ASAP7_75t_R
*CAP
1 *1391:A 9.30568e-06
2 *1187:Y 3.22224e-05
3 *565:6 4.15281e-05
4 *1391:A *1391:B 2.13335e-06
5 *565:6 *625:8 2.09987e-05
6 *1158:A *1391:A 0
7 *71:6 *565:6 3.81627e-06
*RES
1 *1187:Y *565:6 38.0582 
2 *565:6 *1391:A 41.158 
*END

*D_NET *566 0.000420215
*CONN
*I *1390:CI I *D FAx1_ASAP7_75t_R
*I *917:Y O *D INVx1_ASAP7_75t_R
*CAP
1 *1390:CI 0
2 *917:Y 9.5882e-06
3 *566:34 1.13733e-05
4 *566:22 0.000140259
5 *566:16 0.000143479
6 *566:10 2.4181e-05
7 *566:10 *807:33 0
8 *566:16 *807:14 0
9 *566:22 *580:28 0
10 *566:22 *698:38 4.77132e-06
11 *566:22 *715:163 0
12 *566:22 *833:22 0
13 *566:22 *854:20 2.50916e-06
14 *566:34 *716:53 1.54132e-05
15 *113:32 *566:22 0
16 *115:28 *566:22 2.13911e-05
17 *117:26 *566:22 5.11981e-07
18 *482:28 *566:22 1.70997e-07
19 *493:30 *566:22 1.92618e-06
20 *527:42 *566:22 8.09671e-07
21 *540:16 *566:16 4.38311e-05
*RES
1 *917:Y *566:10 38.9142 
2 *566:10 *566:16 36.1966 
3 *566:16 *566:22 48.7008 
4 *566:22 *566:34 45.5483 
5 *566:34 *1390:CI 17.2 
*END

*D_NET *567 0.000183805
*CONN
*I *1389:A I *D FAx1_ASAP7_75t_R
*I *1305:Y O *D INVx1_ASAP7_75t_R
*CAP
1 *1389:A 0
2 *1305:Y 2.90725e-05
3 *567:14 5.43021e-05
4 *567:10 8.33746e-05
5 *567:10 *1024:B 5.22376e-06
6 *567:10 *791:8 0
7 *567:10 *797:10 2.05883e-06
8 *567:14 *880:B 3.1923e-06
9 *567:14 *627:10 3.86684e-06
10 *567:14 *716:69 1.35684e-06
11 *567:14 *716:81 1.35684e-06
*RES
1 *1305:Y *567:10 49.5735 
2 *567:10 *567:14 47.685 
3 *567:14 *1389:A 17.2 
*END

*D_NET *568 9.51989e-05
*CONN
*I *1388:B I *D FAx1_ASAP7_75t_R
*I *979:Y O *D INVx1_ASAP7_75t_R
*CAP
1 *1388:B 1.33145e-05
2 *979:Y 1.33564e-05
3 *568:8 2.66709e-05
4 *64:9 *1388:B 2.1664e-06
5 *151:10 *1388:B 0
6 *217:14 *568:8 3.96906e-05
*RES
1 *979:Y *568:8 45.6313 
2 *568:8 *1388:B 26.2107 
*END

*D_NET *569 2.15156e-05
*CONN
*I *1387:B I *D FAx1_ASAP7_75t_R
*I *1133:Y O *D INVx1_ASAP7_75t_R
*CAP
1 *1387:B 1.07578e-05
2 *1133:Y 1.07578e-05
*RES
1 *1133:Y *1387:B 23.8853 
*END

*D_NET *570 8.62513e-05
*CONN
*I *1423:A I *D HAxp5_ASAP7_75t_R
*I *875:Y O *D INVx1_ASAP7_75t_R
*CAP
1 *1423:A 0
2 *875:Y 5.94671e-06
3 *570:12 3.7179e-05
4 *570:8 4.31257e-05
*RES
1 *875:Y *570:8 37.779 
2 *570:8 *570:12 34.8492 
3 *570:12 *1423:A 17.2 
*END

*D_NET *571 1.49926e-05
*CONN
*I *1425:B I *D HAxp5_ASAP7_75t_R
*I *895:Y O *D INVx1_ASAP7_75t_R
*CAP
1 *1425:B 7.49628e-06
2 *895:Y 7.49628e-06
*RES
1 *895:Y *1425:B 39.2134 
*END

*D_NET *572 0.000125906
*CONN
*I *1424:A I *D HAxp5_ASAP7_75t_R
*I *1073:Y O *D INVx1_ASAP7_75t_R
*CAP
1 *1424:A 0
2 *1073:Y 6.2321e-05
3 *572:6 6.2321e-05
4 *572:6 *1424:B 1.26378e-06
*RES
1 *1073:Y *572:6 44.4761 
2 *572:6 *1424:A 17.2 
*END

*D_NET *573 7.28778e-05
*CONN
*I *1396:B I *D FAx1_ASAP7_75t_R
*I *1035:Y O *D INVx1_ASAP7_75t_R
*CAP
1 *1396:B 8.97677e-06
2 *1035:Y 1.87969e-05
3 *573:10 2.77737e-05
4 *1071:A *573:10 2.61188e-06
5 *1396:A *1396:B 1.47185e-05
6 *124:8 *573:10 0
*RES
1 *1035:Y *573:10 44.2252 
2 *573:10 *1396:B 24.955 
*END

*D_NET *574 3.3672e-05
*CONN
*I *1395:B I *D FAx1_ASAP7_75t_R
*I *1291:Y O *D INVx1_ASAP7_75t_R
*CAP
1 *1395:B 1.22374e-05
2 *1291:Y 1.22374e-05
3 *1395:B *1395:A 9.19727e-06
*RES
1 *1291:Y *1395:B 23.8853 
*END

*D_NET *575 4.82563e-05
*CONN
*I *1394:A I *D FAx1_ASAP7_75t_R
*I *990:Y O *D INVx1_ASAP7_75t_R
*CAP
1 *1394:A 2.11387e-05
2 *990:Y 0
3 *575:6 2.11387e-05
4 *1394:A *589:12 0
5 *1394:A *589:18 0
6 *1394:A *611:10 5.97901e-06
7 *162:10 *1394:A 0
*RES
1 *990:Y *575:6 34.4 
2 *575:6 *1394:A 33.5318 
*END

*D_NET *576 0.000108761
*CONN
*I *1393:CI I *D FAx1_ASAP7_75t_R
*I *1265:Y O *D INVx1_ASAP7_75t_R
*CAP
1 *1393:CI 5.80034e-06
2 *1265:Y 1.52448e-05
3 *576:8 2.10452e-05
4 *1393:CI *623:10 2.35094e-05
5 *576:8 *590:10 1.75355e-05
6 *576:8 *623:10 1.04475e-06
7 *1029:A *576:8 3.73144e-06
8 *1304:A *576:8 6.86929e-06
9 *160:10 *1393:CI 1.33022e-05
10 *160:10 *576:8 6.7842e-07
*RES
1 *1265:Y *576:8 47.7706 
2 *576:8 *1393:CI 25.0843 
*END

*D_NET *577 7.72981e-05
*CONN
*I *1393:A I *D FAx1_ASAP7_75t_R
*I *1253:Y O *D INVx1_ASAP7_75t_R
*CAP
1 *1393:A 0
2 *1253:Y 4.1252e-06
3 *577:14 2.84847e-05
4 *577:8 3.26099e-05
5 *577:14 *590:10 0
6 *577:14 *612:8 0
7 *1304:A *577:14 8.51183e-06
8 *75:8 *577:14 3.56648e-06
*RES
1 *1253:Y *577:8 36.0045 
2 *577:8 *577:14 37.2189 
3 *577:14 *1393:A 17.2 
*END

*D_NET *578 0.000105619
*CONN
*I *1392:B I *D FAx1_ASAP7_75t_R
*I *1158:Y O *D INVx1_ASAP7_75t_R
*CAP
1 *1392:B 2.479e-05
2 *1158:Y 9.19865e-06
3 *578:16 3.4355e-05
4 *578:10 1.87637e-05
5 *1392:B *1391:B 3.04043e-06
6 *1392:B *1391:CI 0
7 *1349:A *1392:B 1.99581e-06
8 *104:9 *578:10 1.00935e-05
9 *159:10 *1392:B 3.38221e-06
*RES
1 *1158:Y *578:10 41.3155 
2 *578:10 *578:16 37.4301 
3 *578:16 *1392:B 35.1275 
*END

*D_NET *579 7.63828e-05
*CONN
*I *1391:CI I *D FAx1_ASAP7_75t_R
*I *918:Y O *D INVx1_ASAP7_75t_R
*CAP
1 *1391:CI 3.03455e-05
2 *918:Y 0
3 *579:6 3.03455e-05
4 *1391:CI *1391:B 0
5 *1391:CI *603:10 0
6 *1391:CI *614:8 0
7 *1391:CI *842:8 0
8 *1391:CI *842:14 0
9 *1189:A *1391:CI 1.02072e-05
10 *1392:B *1391:CI 0
11 *539:8 *1391:CI 5.48463e-06
*RES
1 *918:Y *579:6 34.4 
2 *579:6 *1391:CI 40.853 
*END

*D_NET *580 0.000358893
*CONN
*I *1390:A I *D FAx1_ASAP7_75t_R
*I *914:Y O *D INVx1_ASAP7_75t_R
*CAP
1 *1390:A 1.53591e-05
2 *914:Y 7.37284e-07
3 *580:38 2.04558e-05
4 *580:28 7.14291e-05
5 *580:20 7.73861e-05
6 *580:8 1.1791e-05
7 *1390:A *615:8 2.74006e-06
8 *1390:A *833:34 1.79289e-07
9 *580:20 *807:14 4.86975e-06
10 *580:28 *833:22 6.0126e-06
11 *580:28 *854:20 5.44723e-07
12 *580:28 *854:24 7.23345e-06
13 *580:38 *716:63 1.4909e-06
14 *1189:A *1390:A 0
15 *110:18 *580:20 0
16 *111:18 *580:8 9.1471e-07
17 *113:32 *580:28 4.26225e-05
18 *482:28 *580:28 3.70647e-05
19 *540:24 *580:28 4.6034e-05
20 *540:32 *1390:A 0
21 *540:32 *580:38 6.34811e-07
22 *541:28 *580:20 4.73145e-06
23 *541:28 *580:28 6.66167e-06
24 *566:22 *580:28 0
*RES
1 *914:Y *580:8 35.057 
2 *580:8 *580:20 44.2756 
3 *580:20 *580:28 44.4169 
4 *580:28 *580:38 42.3829 
5 *580:38 *1390:A 28.7449 
*END

*D_NET *581 1.69645e-05
*CONN
*I *1389:CI I *D FAx1_ASAP7_75t_R
*I *1286:Y O *D INVx1_ASAP7_75t_R
*CAP
1 *1389:CI 0
2 *1286:Y 8.07139e-06
3 *581:8 8.07139e-06
4 *581:8 *1381:A 0
5 *581:8 *627:10 8.2174e-07
*RES
1 *1286:Y *581:8 40.0317 
2 *581:8 *1389:CI 17.2 
*END

*D_NET *582 1.70783e-05
*CONN
*I *1388:CI I *D FAx1_ASAP7_75t_R
*I *1134:Y O *D INVx1_ASAP7_75t_R
*CAP
1 *1388:CI 0
2 *1134:Y 7.15088e-06
3 *582:8 7.15088e-06
4 *64:9 *582:8 2.77657e-06
*RES
1 *1134:Y *582:8 40.0317 
2 *582:8 *1388:CI 17.2 
*END

*D_NET *584 5.42434e-05
*CONN
*I *1423:B I *D HAxp5_ASAP7_75t_R
*I *896:Y O *D INVx1_ASAP7_75t_R
*CAP
1 *1423:B 2.14023e-05
2 *896:Y 2.14023e-05
3 *220:6 *1423:B 9.9223e-06
4 *221:10 *1423:B 1.51653e-06
*RES
1 *896:Y *1423:B 49.9099 
*END

*D_NET *585 3.86294e-05
*CONN
*I *1425:A I *D HAxp5_ASAP7_75t_R
*I *1074:Y O *D INVx1_ASAP7_75t_R
*CAP
1 *1425:A 8.293e-06
2 *1074:Y 8.293e-06
3 *224:6 *1425:A 9.9223e-06
4 *225:10 *1425:A 1.21211e-05
*RES
1 *1074:Y *1425:A 43.492 
*END

*D_NET *586 1.55462e-05
*CONN
*I *1424:B I *D HAxp5_ASAP7_75t_R
*I *1036:Y O *D INVx1_ASAP7_75t_R
*CAP
1 *1424:B 7.14122e-06
2 *1036:Y 7.14122e-06
3 *572:6 *1424:B 1.26378e-06
*RES
1 *1036:Y *1424:B 39.2134 
*END

*D_NET *587 1.75857e-05
*CONN
*I *1396:CI I *D FAx1_ASAP7_75t_R
*I *1015:Y O *D INVx1_ASAP7_75t_R
*CAP
1 *1396:CI 0
2 *1015:Y 7.44069e-06
3 *587:8 7.44069e-06
4 *166:10 *587:8 2.70427e-06
*RES
1 *1015:Y *587:8 41.158 
2 *587:8 *1396:CI 17.2 
*END

*D_NET *588 0.0001251
*CONN
*I *1395:A I *D FAx1_ASAP7_75t_R
*I *991:Y O *D INVx1_ASAP7_75t_R
*CAP
1 *1395:A 3.38088e-05
2 *991:Y 1.3446e-05
3 *588:8 4.72548e-05
4 *1395:A *589:12 0
5 *1395:A *836:8 0
6 *1395:B *1395:A 9.19727e-06
7 *121:14 *588:8 7.69873e-06
8 *548:10 *1395:A 0
9 *561:8 *1395:A 1.36943e-05
*RES
1 *991:Y *588:8 41.8876 
2 *588:8 *1395:A 43.2597 
*END

*D_NET *589 0.000251843
*CONN
*I *1394:CI I *D FAx1_ASAP7_75t_R
*I *1266:Y O *D INVx1_ASAP7_75t_R
*CAP
1 *1394:CI 0
2 *1266:Y 2.85552e-05
3 *589:18 3.97293e-05
4 *589:12 7.64302e-05
5 *589:8 6.52561e-05
6 *589:8 *969:A 3.89037e-06
7 *589:8 *969:B 0
8 *589:12 *969:A 0
9 *589:12 *611:10 0
10 *589:12 *716:18 2.66436e-05
11 *589:12 *716:26 1.1338e-05
12 *589:12 *820:8 0
13 *589:18 *1394:B 0
14 *1373:A *589:12 0
15 *1394:A *589:12 0
16 *1394:A *589:18 0
17 *1395:A *589:12 0
18 *163:10 *589:18 0
*RES
1 *1266:Y *589:8 44.5617 
2 *589:8 *589:12 45.9215 
3 *589:12 *589:18 37.3286 
4 *589:18 *1394:CI 17.2 
*END

*D_NET *590 5.39969e-05
*CONN
*I *1385:CI I *D FAx1_ASAP7_75t_R
*I *1029:Y O *D INVx1_ASAP7_75t_R
*CAP
1 *1385:CI 0
2 *1029:Y 1.64214e-05
3 *590:10 1.64214e-05
4 *590:10 *1385:B 0
5 *590:10 *623:10 3.61852e-06
6 *590:10 *634:10 0
7 *576:8 *590:10 1.75355e-05
8 *577:14 *590:10 0
*RES
1 *1029:Y *590:10 48.7589 
2 *590:10 *1385:CI 17.2 
*END

*D_NET *591 5.97637e-05
*CONN
*I *1384:A I *D FAx1_ASAP7_75t_R
*I *1221:Y O *D INVx1_ASAP7_75t_R
*CAP
1 *1384:A 2.48588e-05
2 *1221:Y 5.02303e-06
3 *591:8 2.98819e-05
4 *1384:A *602:8 0
5 *117:42 *1384:A 0
*RES
1 *1221:Y *591:8 36.0045 
2 *591:8 *1384:A 35.7845 
*END

*D_NET *592 1.00971e-05
*CONN
*I *1383:A I *D FAx1_ASAP7_75t_R
*I *1311:Y O *D INVx1_ASAP7_75t_R
*CAP
1 *1383:A 5.04855e-06
2 *1311:Y 5.04855e-06
*RES
1 *1311:Y *1383:A 20.1415 
*END

*D_NET *593 7.93114e-05
*CONN
*I *1382:B I *D FAx1_ASAP7_75t_R
*I *910:Y O *D INVx1_ASAP7_75t_R
*CAP
1 *1382:B 0
2 *910:Y 4.3621e-06
3 *593:16 2.55117e-05
4 *593:8 2.98738e-05
5 *593:8 *1347:CI 0
6 *593:16 *594:14 2.90209e-08
7 *593:16 *637:10 8.06799e-07
8 *593:16 *653:10 1.76832e-05
9 *66:14 *593:16 1.04475e-06
*RES
1 *910:Y *593:8 37.779 
2 *593:8 *593:16 49.1237 
3 *593:16 *1382:B 17.2 
*END

*D_NET *594 0.000102181
*CONN
*I *1381:CI I *D FAx1_ASAP7_75t_R
*I *906:Y O *D INVx1_ASAP7_75t_R
*CAP
1 *1381:CI 5.93138e-06
2 *906:Y 1.11152e-05
3 *594:14 2.92036e-05
4 *594:8 3.43875e-05
5 *1381:CI *669:10 0
6 *594:14 *1381:A 1.908e-06
7 *594:14 *638:8 0
8 *594:14 *653:10 5.19475e-06
9 *594:14 *668:8 6.7842e-07
10 *66:14 *594:14 0
11 *136:8 *1381:CI 2.22736e-06
12 *153:10 *594:14 1.15055e-05
13 *593:16 *594:14 2.90209e-08
*RES
1 *906:Y *594:8 39.2134 
2 *594:8 *594:14 36.4857 
3 *594:14 *1381:CI 42.2843 
*END

*D_NET *595 0.000118906
*CONN
*I *1380:A I *D FAx1_ASAP7_75t_R
*I *977:Y O *D INVx1_ASAP7_75t_R
*CAP
1 *1380:A 8.87901e-06
2 *977:Y 1.68756e-05
3 *595:14 3.81601e-05
4 *595:10 4.61567e-05
5 *595:14 *654:8 3.65663e-06
6 *217:14 *595:10 5.17782e-06
*RES
1 *977:Y *595:10 43.0989 
2 *595:10 *595:14 35.9189 
3 *595:14 *1380:A 41.158 
*END

*D_NET *596 1.1744e-05
*CONN
*I *1379:A I *D FAx1_ASAP7_75t_R
*I *1301:Y O *D INVx1_ASAP7_75t_R
*CAP
1 *1379:A 5.87201e-06
2 *1301:Y 5.87201e-06
*RES
1 *1301:Y *1379:A 20.6764 
*END

*D_NET *597 1.41596e-05
*CONN
*I *1378:A I *D FAx1_ASAP7_75t_R
*I *1163:Y O *D INVx1_ASAP7_75t_R
*CAP
1 *1378:A 7.07982e-06
2 *1163:Y 7.07982e-06
*RES
1 *1163:Y *1378:A 21.746 
*END

*D_NET *598 4.08322e-05
*CONN
*I *1377:A I *D FAx1_ASAP7_75t_R
*I *1298:Y O *D INVx1_ASAP7_75t_R
*CAP
1 *1377:A 0
2 *1298:Y 1.19856e-05
3 *598:10 1.19856e-05
4 *598:10 *632:10 8.2174e-07
5 *598:10 *642:8 0
6 *1103:A *598:10 6.39911e-06
7 *249:10 *598:10 9.64014e-06
*RES
1 *1298:Y *598:10 43.8888 
2 *598:10 *1377:A 17.2 
*END

*D_NET *599 2.4883e-05
*CONN
*I *1438:A I *D HAxp5_ASAP7_75t_R
*I *961:Y O *D INVx1_ASAP7_75t_R
*CAP
1 *1438:A 0
2 *961:Y 1.21651e-05
3 *599:10 1.21651e-05
4 *599:10 *622:8 5.52807e-07
5 *170:10 *599:10 0
*RES
1 *961:Y *599:10 40.4531 
2 *599:10 *1438:A 34.4 
*END

*D_NET *600 2.11658e-05
*CONN
*I *1386:A I *D FAx1_ASAP7_75t_R
*I *1294:Y O *D INVx1_ASAP7_75t_R
*CAP
1 *1386:A 0
2 *1294:Y 3.73575e-06
3 *600:8 3.73575e-06
4 *600:8 *1386:CI 1.36943e-05
*RES
1 *1294:Y *600:8 38.9053 
2 *600:8 *1386:A 17.2 
*END

*D_NET *601 6.55777e-05
*CONN
*I *1350:CI I *D FAx1_ASAP7_75t_R
*I *867:Y O *D AND2x2_ASAP7_75t_R
*CAP
1 *1350:CI 0
2 *867:Y 3.01201e-05
3 *601:10 3.01201e-05
4 *601:10 *969:B 5.33743e-06
5 *601:10 *612:8 0
*RES
1 *867:Y *601:10 48.5038 
2 *601:10 *1350:CI 17.2 
*END

*D_NET *602 1.61101e-05
*CONN
*I *1349:CI I *D FAx1_ASAP7_75t_R
*I *877:Y O *D AND2x2_ASAP7_75t_R
*CAP
1 *1349:CI 0
2 *877:Y 7.90565e-06
3 *602:8 7.90565e-06
4 *602:8 *833:60 0
5 *1384:A *602:8 0
6 *73:8 *602:8 2.98814e-07
*RES
1 *877:Y *602:8 40.0317 
2 *602:8 *1349:CI 17.2 
*END

*D_NET *603 5.31688e-05
*CONN
*I *1348:CI I *D FAx1_ASAP7_75t_R
*I *878:Y O *D AND2x2_ASAP7_75t_R
*CAP
1 *1348:CI 0
2 *878:Y 2.30729e-05
3 *603:10 2.30729e-05
4 *1391:CI *603:10 0
5 *539:8 *603:10 7.0231e-06
*RES
1 *878:Y *603:10 49.237 
2 *603:10 *1348:CI 17.2 
*END

*D_NET *604 0.000129349
*CONN
*I *1347:CI I *D FAx1_ASAP7_75t_R
*I *879:Y O *D AND2x2_ASAP7_75t_R
*CAP
1 *1347:CI 1.34215e-05
2 *879:Y 3.40124e-06
3 *604:14 4.02842e-05
4 *604:8 3.02639e-05
5 *1347:CI *1390:B 9.58076e-06
6 *1347:CI *626:10 0
7 *604:8 *626:10 5.00998e-07
8 *604:8 *716:69 1.09067e-06
9 *604:14 *707:64 6.03635e-06
10 *66:14 *604:14 5.51397e-07
11 *68:10 *1347:CI 1.50026e-06
12 *69:8 *1347:CI 2.27181e-05
13 *593:8 *1347:CI 0
*RES
1 *879:Y *604:8 37.779 
2 *604:8 *604:14 44.5617 
3 *604:14 *1347:CI 31.2792 
*END

*D_NET *605 2.01503e-05
*CONN
*I *1346:CI I *D FAx1_ASAP7_75t_R
*I *880:Y O *D AND2x2_ASAP7_75t_R
*CAP
1 *1346:CI 0
2 *880:Y 6.98344e-06
3 *605:8 6.98344e-06
4 *605:8 *616:10 1.50299e-06
5 *605:8 *716:69 2.70427e-06
6 *67:8 *605:8 1.97616e-06
*RES
1 *880:Y *605:8 41.158 
2 *605:8 *1346:CI 17.2 
*END

*D_NET *606 3.39913e-05
*CONN
*I *1345:CI I *D FAx1_ASAP7_75t_R
*I *881:Y O *D AND2x2_ASAP7_75t_R
*CAP
1 *1345:CI 0
2 *881:Y 5.13097e-06
3 *606:8 5.13097e-06
4 *606:8 *1345:A 1.09842e-06
5 *606:8 *707:38 2.02788e-05
6 *542:10 *606:8 2.35211e-06
*RES
1 *881:Y *606:8 41.158 
2 *606:8 *1345:CI 17.2 
*END

*D_NET *607 1.66883e-05
*CONN
*I *1344:CI I *D FAx1_ASAP7_75t_R
*I *882:Y O *D AND2x2_ASAP7_75t_R
*CAP
1 *1344:CI 0
2 *882:Y 8.34414e-06
3 *607:8 8.34414e-06
4 *607:8 *1344:B 0
5 *1387:CI *607:8 0
6 *543:10 *607:8 0
*RES
1 *882:Y *607:8 41.158 
2 *607:8 *1344:CI 17.2 
*END

*D_NET *608 7.5913e-05
*CONN
*I *1343:CI I *D FAx1_ASAP7_75t_R
*I *883:Y O *D AND2x2_ASAP7_75t_R
*CAP
1 *1343:CI 0
2 *883:Y 1.29065e-05
3 *608:10 1.29065e-05
4 *608:10 *630:8 1.56713e-06
5 *608:10 *630:14 2.73885e-05
6 *1164:A *608:10 3.65131e-06
7 *61:8 *608:10 9.94583e-06
8 *558:16 *608:10 7.54709e-06
*RES
1 *883:Y *608:10 49.2937 
2 *608:10 *1343:CI 17.2 
*END

*D_NET *609 3.27954e-05
*CONN
*I *1342:CI I *D FAx1_ASAP7_75t_R
*I *884:Y O *D AND2x2_ASAP7_75t_R
*CAP
1 *1342:CI 0
2 *884:Y 5.55081e-06
3 *609:8 5.55081e-06
4 *609:8 *1009:A 2.01542e-05
5 *609:8 *620:8 1.53963e-06
6 *609:8 *707:10 0
*RES
1 *884:Y *609:8 41.158 
2 *609:8 *1342:CI 17.2 
*END

*D_NET *610 1.95547e-05
*CONN
*I *1398:CI I *D FAx1_ASAP7_75t_R
*I *1279:Y O *D AND2x2_ASAP7_75t_R
*CAP
1 *1398:CI 0
2 *1279:Y 9.77733e-06
3 *610:8 9.77733e-06
4 *610:8 *1398:B 0
5 *610:8 *805:18 0
6 *170:10 *610:8 0
7 *558:16 *610:8 0
*RES
1 *1279:Y *610:8 41.158 
2 *610:8 *1398:CI 17.2 
*END

*D_NET *611 4.62829e-05
*CONN
*I *1413:B I *D HAxp5_ASAP7_75t_R
*I *1299:Y O *D AND2x2_ASAP7_75t_R
*CAP
1 *1413:B 0
2 *1299:Y 1.79973e-05
3 *611:10 1.79973e-05
4 *990:A *611:10 4.30929e-06
5 *1394:A *611:10 5.97901e-06
6 *200:8 *611:10 0
7 *201:8 *611:10 0
8 *589:12 *611:10 0
*RES
1 *1299:Y *611:10 48.1107 
2 *611:10 *1413:B 34.4 
*END

*D_NET *612 1.5396e-05
*CONN
*I *1350:B I *D FAx1_ASAP7_75t_R
*I *969:Y O *D AND2x2_ASAP7_75t_R
*CAP
1 *1350:B 0
2 *969:Y 7.69799e-06
3 *612:8 7.69799e-06
4 *1304:A *612:8 0
5 *577:14 *612:8 0
6 *601:10 *612:8 0
*RES
1 *969:Y *612:8 40.0317 
2 *612:8 *1350:B 17.2 
*END

*D_NET *613 1.58398e-05
*CONN
*I *1349:B I *D FAx1_ASAP7_75t_R
*I *970:Y O *D AND2x2_ASAP7_75t_R
*CAP
1 *1349:B 0
2 *970:Y 7.91991e-06
3 *613:8 7.91991e-06
4 *613:8 *833:60 0
5 *613:8 *833:77 0
*RES
1 *970:Y *613:8 40.0317 
2 *613:8 *1349:B 17.2 
*END

*D_NET *614 4.38686e-05
*CONN
*I *1348:B I *D FAx1_ASAP7_75t_R
*I *971:Y O *D AND2x2_ASAP7_75t_R
*CAP
1 *1348:B 0
2 *971:Y 2.11105e-05
3 *614:8 2.11105e-05
4 *1391:CI *614:8 0
5 *539:8 *614:8 1.64764e-06
*RES
1 *971:Y *614:8 48.4791 
2 *614:8 *1348:B 17.2 
*END

*D_NET *615 3.60676e-05
*CONN
*I *1347:B I *D FAx1_ASAP7_75t_R
*I *972:Y O *D AND2x2_ASAP7_75t_R
*CAP
1 *1347:B 1.39191e-05
2 *972:Y 2.43961e-06
3 *615:8 1.63587e-05
4 *1390:A *615:8 2.74006e-06
5 *540:32 *615:8 6.10236e-07
*RES
1 *972:Y *615:8 37.2158 
2 *615:8 *1347:B 23.8853 
*END

*D_NET *616 3.39479e-05
*CONN
*I *1346:B I *D FAx1_ASAP7_75t_R
*I *980:Y O *D AND2x2_ASAP7_75t_R
*CAP
1 *1346:B 0
2 *980:Y 1.5094e-05
3 *616:10 1.5094e-05
4 *616:10 *707:64 2.25696e-06
5 *616:10 *716:69 0
6 *66:8 *616:10 0
7 *605:8 *616:10 1.50299e-06
*RES
1 *980:Y *616:10 43.8321 
2 *616:10 *1346:B 17.2 
*END

*D_NET *617 5.60344e-05
*CONN
*I *1345:A I *D FAx1_ASAP7_75t_R
*I *997:Y O *D AND2x2_ASAP7_75t_R
*CAP
1 *1345:A 1.69797e-05
2 *997:Y 0
3 *617:6 1.69797e-05
4 *1345:A *628:10 0
5 *1345:A *707:38 3.79494e-06
6 *65:8 *1345:A 4.10928e-06
7 *217:10 *1345:A 1.12894e-06
8 *542:10 *1345:A 1.19435e-05
9 *606:8 *1345:A 1.09842e-06
*RES
1 *997:Y *617:6 34.4 
2 *617:6 *1345:A 33.5318 
*END

*D_NET *618 7.16882e-05
*CONN
*I *1344:B I *D FAx1_ASAP7_75t_R
*I *1006:Y O *D AND2x2_ASAP7_75t_R
*CAP
1 *1344:B 1.26433e-05
2 *1006:Y 2.12454e-05
3 *618:8 3.38887e-05
4 *1436:A *618:8 6.15528e-07
5 *62:8 *1344:B 0
6 *63:8 *1344:B 0
7 *247:8 *1344:B 3.29527e-06
8 *444:42 *1344:B 0
9 *607:8 *1344:B 0
*RES
1 *1006:Y *618:8 45.6313 
2 *618:8 *1344:B 27.337 
*END

*D_NET *619 0.000103556
*CONN
*I *1343:B I *D FAx1_ASAP7_75t_R
*I *1007:Y O *D AND2x2_ASAP7_75t_R
*CAP
1 *1343:B 1.95768e-05
2 *1007:Y 2.2239e-05
3 *619:8 4.18158e-05
4 *1343:B *805:10 0
5 *1343:B *805:12 0
6 *619:8 *1279:A 1.18381e-05
7 *619:8 *830:90 4.73041e-06
8 *1343:A *1343:B 3.3563e-06
9 *211:12 *1343:B 0
10 *558:16 *1343:B 0
*RES
1 *1007:Y *619:8 44.5617 
2 *619:8 *1343:B 31.2792 
*END

*D_NET *620 2.05107e-05
*CONN
*I *1342:B I *D FAx1_ASAP7_75t_R
*I *1008:Y O *D AND2x2_ASAP7_75t_R
*CAP
1 *1342:B 0
2 *1008:Y 8.98802e-06
3 *620:8 8.98802e-06
4 *620:8 *1009:A 9.95025e-07
5 *609:8 *620:8 1.53963e-06
*RES
1 *1008:Y *620:8 41.158 
2 *620:8 *1342:B 17.2 
*END

*D_NET *621 9.80856e-05
*CONN
*I *1398:B I *D FAx1_ASAP7_75t_R
*I *1009:Y O *D AND2x2_ASAP7_75t_R
*CAP
1 *1398:B 3.30172e-05
2 *1009:Y 8.41096e-06
3 *621:8 4.14282e-05
4 *1398:B *884:B 0
5 *621:8 *707:6 6.5975e-06
6 *170:10 *1398:B 8.6318e-06
7 *610:8 *1398:B 0
*RES
1 *1009:Y *621:8 38.1438 
2 *621:8 *1398:B 40.853 
*END

*D_NET *622 5.91535e-05
*CONN
*I *1438:B I *D HAxp5_ASAP7_75t_R
*I *1281:Y O *D AND2x2_ASAP7_75t_R
*CAP
1 *1438:B 1.28661e-05
2 *1281:Y 8.57335e-06
3 *622:8 2.14395e-05
4 *622:8 *630:14 1.54378e-05
5 *558:16 *622:8 2.83874e-07
6 *599:10 *622:8 5.52807e-07
*RES
1 *1281:Y *622:8 42.2843 
2 *622:8 *1438:B 41.3527 
*END

*D_NET *623 6.28403e-05
*CONN
*I *1393:B I *D FAx1_ASAP7_75t_R
*I *1304:Y O *D INVx1_ASAP7_75t_R
*CAP
1 *1393:B 0
2 *1304:Y 1.73338e-05
3 *623:10 1.73338e-05
4 *1304:A *623:10 0
5 *1393:CI *623:10 2.35094e-05
6 *576:8 *623:10 1.04475e-06
7 *590:10 *623:10 3.61852e-06
*RES
1 *1304:Y *623:10 48.3941 
2 *623:10 *1393:B 17.2 
*END

*D_NET *624 3.92003e-05
*CONN
*I *1392:A I *D FAx1_ASAP7_75t_R
*I *1313:Y O *D INVx1_ASAP7_75t_R
*CAP
1 *1392:A 1.51378e-05
2 *1313:Y 1.51378e-05
3 *1392:A *770:14 7.94909e-06
4 *159:10 *1392:A 9.75645e-07
*RES
1 *1313:Y *1392:A 26.0246 
*END

*D_NET *625 8.80061e-05
*CONN
*I *1391:B I *D FAx1_ASAP7_75t_R
*I *1219:Y O *D INVx1_ASAP7_75t_R
*CAP
1 *1391:B 8.86872e-06
2 *1219:Y 6.14037e-06
3 *625:8 1.50091e-05
4 *1391:A *1391:B 2.13335e-06
5 *1391:CI *1391:B 0
6 *1392:B *1391:B 3.04043e-06
7 *71:6 *625:8 3.18154e-05
8 *565:6 *625:8 2.09987e-05
*RES
1 *1219:Y *625:8 44.0269 
2 *625:8 *1391:B 23.958 
*END

*D_NET *626 0.000167271
*CONN
*I *1390:B I *D FAx1_ASAP7_75t_R
*I *911:Y O *D INVx1_ASAP7_75t_R
*CAP
1 *1390:B 2.41028e-05
2 *911:Y 1.04054e-05
3 *626:24 3.19357e-05
4 *626:18 2.54472e-05
5 *626:10 2.80197e-05
6 *1390:B *637:10 0
7 *909:A *1390:B 3.34981e-06
8 *911:A *626:10 1.45042e-05
9 *911:A *626:24 2.03526e-06
10 *1347:CI *1390:B 9.58076e-06
11 *1347:CI *626:10 0
12 *68:10 *626:24 6.47236e-06
13 *69:8 *626:18 7.56661e-06
14 *154:9 *1390:B 3.34981e-06
15 *540:32 *626:18 0
16 *604:8 *626:10 5.00998e-07
*RES
1 *911:Y *626:10 39.7394 
2 *626:10 *626:18 40.3398 
3 *626:18 *626:24 39.2134 
4 *626:24 *1390:B 35.9385 
*END

*D_NET *627 5.37374e-05
*CONN
*I *1389:B I *D FAx1_ASAP7_75t_R
*I *907:Y O *D INVx1_ASAP7_75t_R
*CAP
1 *1389:B 0
2 *907:Y 2.45244e-05
3 *627:10 2.45244e-05
4 *567:14 *627:10 3.86684e-06
5 *581:8 *627:10 8.2174e-07
*RES
1 *907:Y *627:10 47.4342 
2 *627:10 *1389:B 17.2 
*END

*D_NET *628 4.43688e-05
*CONN
*I *1388:A I *D FAx1_ASAP7_75t_R
*I *978:Y O *D INVx1_ASAP7_75t_R
*CAP
1 *1388:A 0
2 *978:Y 2.04309e-05
3 *628:10 2.04309e-05
4 *1345:A *628:10 0
5 *64:9 *628:10 3.50698e-06
*RES
1 *978:Y *628:10 45.3516 
2 *628:10 *1388:A 17.2 
*END

*D_NET *629 1.14389e-05
*CONN
*I *1387:A I *D FAx1_ASAP7_75t_R
*I *1132:Y O *D INVx1_ASAP7_75t_R
*CAP
1 *1387:A 0
2 *1132:Y 5.71943e-06
3 *629:8 5.71943e-06
4 *1387:CI *629:8 0
5 *247:8 *629:8 0
*RES
1 *1132:Y *629:8 38.9053 
2 *629:8 *1387:A 17.2 
*END

*D_NET *630 0.000101511
*CONN
*I *1422:A I *D HAxp5_ASAP7_75t_R
*I *1164:Y O *D INVx1_ASAP7_75t_R
*CAP
1 *1422:A 0
2 *1164:Y 5.61017e-06
3 *630:14 1.95736e-05
4 *630:8 2.51837e-05
5 *1161:A *630:14 0
6 *1422:B *630:14 6.7842e-07
7 *558:16 *630:14 6.07185e-06
8 *608:10 *630:8 1.56713e-06
9 *608:10 *630:14 2.73885e-05
10 *622:8 *630:14 1.54378e-05
*RES
1 *1164:Y *630:8 37.0741 
2 *630:8 *630:14 36.2626 
3 *630:14 *1422:A 17.2 
*END

*D_NET *631 4.93598e-05
*CONN
*I *1437:A I *D HAxp5_ASAP7_75t_R
*I *1105:Y O *D INVx1_ASAP7_75t_R
*CAP
1 *1437:A 1.31472e-05
2 *1105:Y 1.31472e-05
3 *559:12 *1437:A 2.30654e-05
*RES
1 *1105:Y *1437:A 40.2831 
*END

*D_NET *632 5.13164e-05
*CONN
*I *1377:CI I *D FAx1_ASAP7_75t_R
*I *1297:Y O *D INVx1_ASAP7_75t_R
*CAP
1 *1377:CI 0
2 *1297:Y 2.44083e-05
3 *632:10 2.44083e-05
4 *632:10 *642:8 1.67815e-06
5 *598:10 *632:10 8.2174e-07
*RES
1 *1297:Y *632:10 46.3079 
2 *632:10 *1377:CI 17.2 
*END

*D_NET *633 6.96016e-05
*CONN
*I *1394:B I *D FAx1_ASAP7_75t_R
*I *868:Y O *D INVx1_ASAP7_75t_R
*CAP
1 *1394:B 2.39378e-05
2 *868:Y 4.10501e-06
3 *633:8 2.80428e-05
4 *1394:B *716:10 3.66776e-06
5 *868:A *633:8 7.63254e-07
6 *162:10 *1394:B 8.3668e-07
7 *200:8 *1394:B 5.37866e-07
8 *200:12 *633:8 7.58265e-07
9 *201:8 *1394:B 6.95214e-06
10 *589:18 *1394:B 0
*RES
1 *868:Y *633:8 37.0741 
2 *633:8 *1394:B 36.9108 
*END

*D_NET *634 2.16882e-05
*CONN
*I *1385:A I *D FAx1_ASAP7_75t_R
*I *1210:Y O *D INVx1_ASAP7_75t_R
*CAP
1 *1385:A 0
2 *1210:Y 1.02949e-05
3 *634:10 1.02949e-05
4 *145:10 *634:10 1.09842e-06
5 *590:10 *634:10 0
*RES
1 *1210:Y *634:10 40.5098 
2 *634:10 *1385:A 17.2 
*END

*D_NET *635 0.000139034
*CONN
*I *1384:B I *D FAx1_ASAP7_75t_R
*I *1159:Y O *D INVx1_ASAP7_75t_R
*CAP
1 *1384:B 7.62851e-06
2 *1159:Y 1.5485e-05
3 *635:18 4.54594e-05
4 *635:10 5.33159e-05
5 *635:18 *716:167 0
6 *635:18 *833:45 3.2399e-06
7 *1258:A *635:10 7.68501e-06
8 *159:14 *635:10 6.21979e-06
*RES
1 *1159:Y *635:10 44.6839 
2 *635:10 *635:18 47.4669 
3 *635:18 *1384:B 20.6764 
*END

*D_NET *636 1.37937e-05
*CONN
*I *1383:B I *D FAx1_ASAP7_75t_R
*I *1209:Y O *D INVx1_ASAP7_75t_R
*CAP
1 *1383:B 0
2 *1209:Y 6.89686e-06
3 *636:8 6.89686e-06
4 *141:10 *636:8 0
*RES
1 *1209:Y *636:8 40.0317 
2 *636:8 *1383:B 17.2 
*END

*D_NET *637 3.20997e-05
*CONN
*I *1382:A I *D FAx1_ASAP7_75t_R
*I *908:Y O *D INVx1_ASAP7_75t_R
*CAP
1 *1382:A 0
2 *908:Y 1.56465e-05
3 *637:10 1.56465e-05
4 *637:10 *653:10 0
5 *1390:B *637:10 0
6 *138:8 *637:10 0
7 *139:8 *637:10 0
8 *593:16 *637:10 8.06799e-07
*RES
1 *908:Y *637:10 43.8888 
2 *637:10 *1382:A 17.2 
*END

*D_NET *638 1.32973e-05
*CONN
*I *1381:B I *D FAx1_ASAP7_75t_R
*I *904:Y O *D INVx1_ASAP7_75t_R
*CAP
1 *1381:B 0
2 *904:Y 6.64865e-06
3 *638:8 6.64865e-06
4 *638:8 *1381:A 0
5 *137:10 *638:8 0
6 *594:14 *638:8 0
*RES
1 *904:Y *638:8 40.0317 
2 *638:8 *1381:B 17.2 
*END

*D_NET *639 2.58256e-05
*CONN
*I *1380:B I *D FAx1_ASAP7_75t_R
*I *975:Y O *D INVx1_ASAP7_75t_R
*CAP
1 *1380:B 1.29128e-05
2 *975:Y 1.29128e-05
*RES
1 *975:Y *1380:B 24.955 
*END

*D_NET *640 1.40785e-05
*CONN
*I *1379:B I *D FAx1_ASAP7_75t_R
*I *1110:Y O *D INVx1_ASAP7_75t_R
*CAP
1 *1379:B 0
2 *1110:Y 7.03926e-06
3 *640:8 7.03926e-06
4 *132:10 *640:8 0
*RES
1 *1110:Y *640:8 40.0317 
2 *640:8 *1379:B 17.2 
*END

*D_NET *641 3.96986e-05
*CONN
*I *1378:B I *D FAx1_ASAP7_75t_R
*I *1161:Y O *D INVx1_ASAP7_75t_R
*CAP
1 *1378:B 0
2 *1161:Y 1.53344e-05
3 *641:10 1.53344e-05
4 *641:10 *1378:CI 5.23062e-06
5 *641:10 *688:10 0
6 *1102:A *641:10 3.79923e-06
7 *130:10 *641:10 0
*RES
1 *1161:Y *641:10 43.8321 
2 *641:10 *1378:B 17.2 
*END

*D_NET *642 1.91701e-05
*CONN
*I *1377:B I *D FAx1_ASAP7_75t_R
*I *1103:Y O *D INVx1_ASAP7_75t_R
*CAP
1 *1377:B 0
2 *1103:Y 8.74599e-06
3 *642:8 8.74599e-06
4 *598:10 *642:8 0
5 *632:10 *642:8 1.67815e-06
*RES
1 *1103:Y *642:8 41.158 
2 *642:8 *1377:B 17.2 
*END

*D_NET *643 4.75617e-05
*CONN
*I *1430:B I *D HAxp5_ASAP7_75t_R
*I *873:Y O *D INVx1_ASAP7_75t_R
*CAP
1 *1430:B 2.18727e-05
2 *873:Y 2.18727e-05
3 *1430:B *1430:A 3.81627e-06
*RES
1 *873:Y *1430:B 49.3751 
*END

*D_NET *644 8.27749e-05
*CONN
*I *1429:A I *D HAxp5_ASAP7_75t_R
*I *893:Y O *D INVx1_ASAP7_75t_R
*CAP
1 *1429:A 0
2 *893:Y 3.77714e-05
3 *644:6 3.77714e-05
4 *644:6 *1429:B 3.05302e-06
5 *234:14 *644:6 4.17901e-06
*RES
1 *893:Y *644:6 41.8019 
2 *644:6 *1429:A 17.2 
*END

*D_NET *645 5.53037e-05
*CONN
*I *1428:A I *D HAxp5_ASAP7_75t_R
*I *1033:Y O *D INVx1_ASAP7_75t_R
*CAP
1 *1428:A 1.48427e-05
2 *1033:Y 1.48427e-05
3 *1428:A *1428:B 2.56183e-05
*RES
1 *1033:Y *1428:A 41.3527 
*END

*D_NET *646 3.21275e-05
*CONN
*I *1427:B I *D HAxp5_ASAP7_75t_R
*I *1004:Y O *D INVx1_ASAP7_75t_R
*CAP
1 *1427:B 1.51791e-05
2 *1004:Y 1.51791e-05
3 *1427:B *1427:A 1.26378e-06
4 *989:A *1427:B 5.0551e-07
*RES
1 *1004:Y *1427:B 44.0269 
*END

*D_NET *647 6.98081e-05
*CONN
*I *1426:A I *D HAxp5_ASAP7_75t_R
*I *988:Y O *D INVx1_ASAP7_75t_R
*CAP
1 *1426:A 5.96639e-06
2 *988:Y 2.89377e-05
3 *647:8 3.49041e-05
*RES
1 *988:Y *647:8 47.7706 
2 *647:8 *1426:A 37.779 
*END

*D_NET *648 2.43445e-05
*CONN
*I *1386:B I *D FAx1_ASAP7_75t_R
*I *1263:Y O *D INVx1_ASAP7_75t_R
*CAP
1 *1386:B 1.21722e-05
2 *1263:Y 1.21722e-05
*RES
1 *1263:Y *1386:B 24.955 
*END

*D_NET *649 0.000112673
*CONN
*I *1386:CI I *D FAx1_ASAP7_75t_R
*I *1188:Y O *D INVx1_ASAP7_75t_R
*CAP
1 *1386:CI 2.30955e-05
2 *1188:Y 1.22617e-05
3 *649:8 3.53572e-05
4 *1386:CI *680:10 0
5 *145:20 *1386:CI 4.10928e-06
6 *146:8 *1386:CI 2.41555e-05
7 *600:8 *1386:CI 1.36943e-05
*RES
1 *1188:Y *649:8 39.2134 
2 *649:8 *1386:CI 40.853 
*END

*D_NET *650 8.77958e-05
*CONN
*I *1385:B I *D FAx1_ASAP7_75t_R
*I *1310:Y O *D INVx1_ASAP7_75t_R
*CAP
1 *1385:B 1.21779e-05
2 *1310:Y 2.45736e-05
3 *650:8 3.67515e-05
4 *143:14 *650:8 1.42928e-05
5 *590:10 *1385:B 0
*RES
1 *1310:Y *650:8 49.3751 
2 *650:8 *1385:B 26.2107 
*END

*D_NET *651 3.25049e-05
*CONN
*I *1384:CI I *D FAx1_ASAP7_75t_R
*I *1250:Y O *D INVx1_ASAP7_75t_R
*CAP
1 *1384:CI 0
2 *1250:Y 1.30683e-05
3 *651:10 1.30683e-05
4 *1209:A *651:10 6.36827e-06
*RES
1 *1250:Y *651:10 41.6361 
2 *651:10 *1384:CI 17.2 
*END

*D_NET *652 3.93252e-05
*CONN
*I *1383:CI I *D FAx1_ASAP7_75t_R
*I *909:Y O *D INVx1_ASAP7_75t_R
*CAP
1 *1383:CI 0
2 *909:Y 1.19473e-05
3 *652:8 1.19473e-05
4 *154:9 *652:8 1.54305e-05
*RES
1 *909:Y *652:8 45.6633 
2 *652:8 *1383:CI 17.2 
*END

*D_NET *653 4.90021e-05
*CONN
*I *1382:CI I *D FAx1_ASAP7_75t_R
*I *905:Y O *D INVx1_ASAP7_75t_R
*CAP
1 *1382:CI 0
2 *905:Y 8.50446e-06
3 *653:10 8.50446e-06
4 *138:8 *653:10 9.11516e-06
5 *593:16 *653:10 1.76832e-05
6 *594:14 *653:10 5.19475e-06
7 *637:10 *653:10 0
*RES
1 *905:Y *653:10 45.0151 
2 *653:10 *1382:CI 17.2 
*END

*D_NET *654 5.53489e-05
*CONN
*I *1381:A I *D FAx1_ASAP7_75t_R
*I *976:Y O *D INVx1_ASAP7_75t_R
*CAP
1 *1381:A 1.76693e-05
2 *976:Y 7.22283e-06
3 *654:8 2.48921e-05
4 *581:8 *1381:A 0
5 *594:14 *1381:A 1.908e-06
6 *595:14 *654:8 3.65663e-06
7 *638:8 *1381:A 0
*RES
1 *976:Y *654:8 38.1438 
2 *654:8 *1381:A 30.1528 
*END

*D_NET *655 1.64484e-05
*CONN
*I *1380:CI I *D FAx1_ASAP7_75t_R
*I *1111:Y O *D INVx1_ASAP7_75t_R
*CAP
1 *1380:CI 0
2 *1111:Y 8.22422e-06
3 *655:8 8.22422e-06
*RES
1 *1111:Y *655:8 40.0317 
2 *655:8 *1380:CI 17.2 
*END

*D_NET *656 1.68047e-05
*CONN
*I *1379:CI I *D FAx1_ASAP7_75t_R
*I *1162:Y O *D INVx1_ASAP7_75t_R
*CAP
1 *1379:CI 0
2 *1162:Y 7.22627e-06
3 *656:8 7.22627e-06
4 *132:10 *656:8 2.35211e-06
*RES
1 *1162:Y *656:8 40.0317 
2 *656:8 *1379:CI 17.2 
*END

*D_NET *657 6.92459e-05
*CONN
*I *1378:CI I *D FAx1_ASAP7_75t_R
*I *1104:Y O *D INVx1_ASAP7_75t_R
*CAP
1 *1378:CI 2.05131e-05
2 *1104:Y 1.14049e-05
3 *657:8 3.1918e-05
4 *1378:CI *688:10 0
5 *129:10 *1378:CI 0
6 *250:8 *1378:CI 1.79289e-07
7 *641:10 *1378:CI 5.23062e-06
*RES
1 *1104:Y *657:8 39.2134 
2 *657:8 *1378:CI 32.4055 
*END

*D_NET *659 1.30769e-05
*CONN
*I *1430:A I *D HAxp5_ASAP7_75t_R
*I *894:Y O *D INVx1_ASAP7_75t_R
*CAP
1 *1430:A 4.6303e-06
2 *894:Y 4.6303e-06
3 *1430:B *1430:A 3.81627e-06
*RES
1 *894:Y *1430:A 37.0741 
*END

*D_NET *660 2.11203e-05
*CONN
*I *1429:B I *D HAxp5_ASAP7_75t_R
*I *1034:Y O *D INVx1_ASAP7_75t_R
*CAP
1 *1429:B 9.03364e-06
2 *1034:Y 9.03364e-06
3 *644:6 *1429:B 3.05302e-06
*RES
1 *1034:Y *1429:B 39.7482 
*END

*D_NET *661 6.91632e-05
*CONN
*I *1428:B I *D HAxp5_ASAP7_75t_R
*I *1005:Y O *D INVx1_ASAP7_75t_R
*CAP
1 *1428:B 2.17725e-05
2 *1005:Y 2.17725e-05
3 *1428:A *1428:B 2.56183e-05
*RES
1 *1005:Y *1428:B 49.3751 
*END

*D_NET *662 1.17736e-05
*CONN
*I *1427:A I *D HAxp5_ASAP7_75t_R
*I *989:Y O *D INVx1_ASAP7_75t_R
*CAP
1 *1427:A 5.2549e-06
2 *989:Y 5.2549e-06
3 *1427:B *1427:A 1.26378e-06
*RES
1 *989:Y *1427:A 37.0741 
*END

*D_NET *663 1.66584e-05
*CONN
*I *1426:B I *D HAxp5_ASAP7_75t_R
*I *1264:Y O *D INVx1_ASAP7_75t_R
*CAP
1 *1426:B 8.3292e-06
2 *1264:Y 8.3292e-06
*RES
1 *1264:Y *1426:B 39.7482 
*END

*D_NET *664 1.10087e-05
*CONN
*I *1399:A I *D HAxp5_ASAP7_75t_R
*I *1249:Y O *D INVx1_ASAP7_75t_R
*CAP
1 *1399:A 5.50436e-06
2 *1249:Y 5.50436e-06
*RES
1 *1249:Y *1399:A 37.0741 
*END

*D_NET *665 1.13249e-05
*CONN
*I *1404:A I *D HAxp5_ASAP7_75t_R
*I *1030:Y O *D INVx1_ASAP7_75t_R
*CAP
1 *1404:A 5.66247e-06
2 *1030:Y 5.66247e-06
*RES
1 *1030:Y *1404:A 37.0741 
*END

*D_NET *666 3.98966e-05
*CONN
*I *1408:B I *D HAxp5_ASAP7_75t_R
*I *958:Y O *D INVx1_ASAP7_75t_R
*CAP
1 *1408:B 7.41372e-06
2 *958:Y 7.38983e-06
3 *666:8 1.48036e-05
4 *1408:B *1408:A 1.02895e-05
*RES
1 *958:Y *666:8 38.9053 
2 *666:8 *1408:B 39.2134 
*END

*D_NET *667 3.50943e-05
*CONN
*I *1405:B I *D HAxp5_ASAP7_75t_R
*I *1284:Y O *D INVx1_ASAP7_75t_R
*CAP
1 *1405:B 0
2 *1284:Y 1.75471e-05
3 *667:10 1.75471e-05
4 *184:14 *667:10 0
5 *184:25 *667:10 0
*RES
1 *1284:Y *667:10 44.9018 
2 *667:10 *1405:B 34.4 
*END

*D_NET *668 6.46876e-05
*CONN
*I *1431:A I *D HAxp5_ASAP7_75t_R
*I *903:Y O *D INVx1_ASAP7_75t_R
*CAP
1 *1431:A 4.31948e-06
2 *903:Y 1.88233e-05
3 *668:8 2.31428e-05
4 *1431:A *1431:B 2.35211e-06
5 *1431:A *669:10 8.58704e-06
6 *668:8 *669:10 6.78445e-06
7 *594:14 *668:8 6.7842e-07
*RES
1 *903:Y *668:8 46.701 
2 *668:8 *1431:A 39.4685 
*END

*D_NET *669 8.13728e-05
*CONN
*I *1407:A I *D HAxp5_ASAP7_75t_R
*I *901:Y O *D INVx1_ASAP7_75t_R
*CAP
1 *1407:A 1.99422e-05
2 *901:Y 1.30432e-05
3 *669:10 3.29854e-05
4 *669:10 *1431:B 3.05118e-08
5 *1381:CI *669:10 0
6 *1431:A *669:10 8.58704e-06
7 *136:8 *669:10 0
8 *668:8 *669:10 6.78445e-06
*RES
1 *901:Y *669:10 44.8451 
2 *669:10 *1407:A 42.4224 
*END

*D_NET *670 1.98157e-05
*CONN
*I *1439:A I *D HAxp5_ASAP7_75t_R
*I *973:Y O *D INVx1_ASAP7_75t_R
*CAP
1 *1439:A 9.90786e-06
2 *973:Y 9.90786e-06
*RES
1 *973:Y *1439:A 39.2134 
*END

*D_NET *671 5.42976e-05
*CONN
*I *1441:A I *D HAxp5_ASAP7_75t_R
*I *1108:Y O *D INVx1_ASAP7_75t_R
*CAP
1 *1441:A 2.28198e-05
2 *1108:Y 2.28198e-05
3 *1109:A *1441:A 8.65792e-06
*RES
1 *1108:Y *1441:A 48.8403 
*END

*D_NET *672 2.88125e-05
*CONN
*I *1409:A I *D HAxp5_ASAP7_75t_R
*I *1101:Y O *D INVx1_ASAP7_75t_R
*CAP
1 *1409:A 0
2 *1101:Y 1.27856e-05
3 *672:10 1.27856e-05
4 *672:10 *688:10 3.24127e-06
5 *1144:A *672:10 0
6 *192:8 *672:10 0
*RES
1 *1101:Y *672:10 43.8888 
2 *672:10 *1409:A 34.4 
*END

*D_NET *673 3.25551e-05
*CONN
*I *1401:A I *D HAxp5_ASAP7_75t_R
*I *1271:Y O *D INVx1_ASAP7_75t_R
*CAP
1 *1401:A 0
2 *1271:Y 1.54232e-05
3 *673:8 1.54232e-05
4 *673:8 *688:10 0
5 *673:8 *689:10 5.79724e-07
6 *251:12 *673:8 1.12894e-06
*RES
1 *1271:Y *673:8 46.2265 
2 *673:8 *1401:A 34.4 
*END

*D_NET *674 0.000241559
*CONN
*I *1400:B I *D HAxp5_ASAP7_75t_R
*I *871:Y O *D INVx1_ASAP7_75t_R
*CAP
1 *1400:B 0
2 *871:Y 5.42126e-06
3 *674:18 7.07164e-06
4 *674:12 0.000110381
5 *674:10 0.000103309
6 *674:8 5.42126e-06
7 *232:10 *674:18 0
8 *232:14 *674:12 9.95417e-06
*RES
1 *871:Y *674:8 37.779 
2 *674:8 *674:10 17.2 
3 *674:10 *674:12 42.2512 
4 *674:12 *674:18 38.9053 
5 *674:18 *1400:B 17.2 
*END

*D_NET *675 0.000171951
*CONN
*I *1314:CI I *D FAx1_ASAP7_75t_R
*I *1402:A I *D HAxp5_ASAP7_75t_R
*I *869:Y O *D INVx1_ASAP7_75t_R
*CAP
1 *1314:CI 0
2 *1402:A 0
3 *869:Y 5.91905e-06
4 *675:23 5.05319e-05
5 *675:12 6.90095e-05
6 *675:8 2.43966e-05
7 *675:8 *786:8 0
8 *675:12 *692:6 2.52755e-06
9 *675:12 *692:17 5.0551e-07
10 *675:23 *692:17 0
11 *675:23 *767:14 0
12 *2:8 *675:23 0
13 *2:14 *675:23 4.97342e-06
14 *178:8 *675:12 2.28976e-06
15 *178:8 *675:23 1.17973e-05
*RES
1 *869:Y *675:8 37.779 
2 *675:8 *675:12 26.292 
3 *675:12 *1402:A 17.2 
4 *675:12 *675:23 46.8458 
5 *675:23 *1314:CI 17.2 
*END

*D_NET *676 2.41963e-05
*CONN
*I *1440:A I *D HAxp5_ASAP7_75t_R
*I *1002:Y O *D INVx1_ASAP7_75t_R
*CAP
1 *1440:A 5.88257e-06
2 *1002:Y 5.71005e-06
3 *676:8 1.15926e-05
4 *1440:A *1440:B 1.01102e-06
5 *254:8 *676:8 0
*RES
1 *1002:Y *676:8 37.779 
2 *676:8 *1440:A 37.0741 
*END

*D_NET *677 5.02545e-05
*CONN
*I *1406:B I *D HAxp5_ASAP7_75t_R
*I *987:Y O *D INVx1_ASAP7_75t_R
*CAP
1 *1406:B 1.73943e-05
2 *987:Y 7.34677e-06
3 *677:8 2.47411e-05
4 *1406:B *1406:A 7.72307e-07
5 *677:8 *690:31 0
*RES
1 *987:Y *677:8 38.9053 
2 *677:8 *1406:B 44.5617 
*END

*D_NET *678 4.51334e-05
*CONN
*I *1403:A I *D HAxp5_ASAP7_75t_R
*I *1261:Y O *D INVx1_ASAP7_75t_R
*CAP
1 *1403:A 0
2 *1261:Y 2.25667e-05
3 *678:10 2.25667e-05
4 *147:8 *678:10 0
*RES
1 *1261:Y *678:10 48.2241 
2 *678:10 *1403:A 34.4 
*END

*D_NET *679 1.72654e-05
*CONN
*I *1403:B I *D HAxp5_ASAP7_75t_R
*I *1251:Y O *D INVx1_ASAP7_75t_R
*CAP
1 *1403:B 8.63268e-06
2 *1251:Y 8.63268e-06
*RES
1 *1251:Y *1403:B 39.2134 
*END

*D_NET *680 5.12913e-05
*CONN
*I *1399:B I *D HAxp5_ASAP7_75t_R
*I *1269:Y O *D INVx1_ASAP7_75t_R
*CAP
1 *1399:B 0
2 *1269:Y 2.56457e-05
3 *680:10 2.56457e-05
4 *1386:CI *680:10 0
*RES
1 *1269:Y *680:10 46.9277 
2 *680:10 *1399:B 34.4 
*END

*D_NET *681 4.53961e-05
*CONN
*I *1404:B I *D HAxp5_ASAP7_75t_R
*I *959:Y O *D INVx1_ASAP7_75t_R
*CAP
1 *1404:B 0
2 *959:Y 2.24162e-05
3 *681:10 2.24162e-05
4 *681:10 *1059:A1 5.63702e-07
5 *182:14 *681:10 0
*RES
1 *959:Y *681:10 48.2808 
2 *681:10 *1404:B 34.4 
*END

*D_NET *682 3.43052e-05
*CONN
*I *1408:A I *D HAxp5_ASAP7_75t_R
*I *957:Y O *D INVx1_ASAP7_75t_R
*CAP
1 *1408:A 1.20079e-05
2 *957:Y 1.20079e-05
3 *1408:B *1408:A 1.02895e-05
*RES
1 *957:Y *1408:A 39.2134 
*END

*D_NET *683 8.85136e-06
*CONN
*I *1405:A I *D HAxp5_ASAP7_75t_R
*I *1300:Y O *D INVx1_ASAP7_75t_R
*CAP
1 *1405:A 0
2 *1300:Y 4.42568e-06
3 *683:8 4.42568e-06
4 *184:14 *683:8 0
*RES
1 *1300:Y *683:8 37.779 
2 *683:8 *1405:A 34.4 
*END

*D_NET *684 5.46442e-05
*CONN
*I *1431:B I *D HAxp5_ASAP7_75t_R
*I *902:Y O *D INVx1_ASAP7_75t_R
*CAP
1 *1431:B 1.71986e-05
2 *902:Y 8.93219e-06
3 *684:8 2.61308e-05
4 *1431:B *685:8 0
5 *1431:A *1431:B 2.35211e-06
6 *136:8 *1431:B 0
7 *137:10 *1431:B 0
8 *237:8 *1431:B 0
9 *669:10 *1431:B 3.05118e-08
*RES
1 *902:Y *684:8 38.1438 
2 *684:8 *1431:B 47.3528 
*END

*D_NET *685 3.30344e-05
*CONN
*I *1407:B I *D HAxp5_ASAP7_75t_R
*I *974:Y O *D INVx1_ASAP7_75t_R
*CAP
1 *1407:B 0
2 *974:Y 1.65172e-05
3 *685:8 1.65172e-05
4 *1431:B *685:8 0
5 *189:8 *685:8 0
6 *236:24 *685:8 0
*RES
1 *974:Y *685:8 47.3528 
2 *685:8 *1407:B 34.4 
*END

*D_NET *686 1.41433e-05
*CONN
*I *1439:B I *D HAxp5_ASAP7_75t_R
*I *1109:Y O *D INVx1_ASAP7_75t_R
*CAP
1 *1439:B 0
2 *1109:Y 7.07164e-06
3 *686:8 7.07164e-06
*RES
1 *1109:Y *686:8 38.9053 
2 *686:8 *1439:B 34.4 
*END

*D_NET *687 8.61761e-05
*CONN
*I *1441:B I *D HAxp5_ASAP7_75t_R
*I *1102:Y O *D INVx1_ASAP7_75t_R
*CAP
1 *1441:B 1.66839e-05
2 *1102:Y 2.64041e-05
3 *687:8 4.3088e-05
4 *1563:A *1441:B 0
*RES
1 *1102:Y *687:8 45.6313 
2 *687:8 *1441:B 47.3528 
*END

*D_NET *688 7.23388e-05
*CONN
*I *1409:B I *D HAxp5_ASAP7_75t_R
*I *1270:Y O *D INVx1_ASAP7_75t_R
*CAP
1 *1409:B 0
2 *1270:Y 0
3 *688:10 3.13977e-05
4 *688:6 3.13977e-05
5 *1378:CI *688:10 0
6 *128:9 *688:10 0
7 *129:10 *688:10 7.84037e-07
8 *130:10 *688:10 5.51814e-06
9 *251:12 *688:10 0
10 *641:10 *688:10 0
11 *672:10 *688:10 3.24127e-06
12 *673:8 *688:10 0
*RES
1 *1270:Y *688:6 34.4 
2 *688:6 *688:10 44.232 
3 *688:10 *1409:B 17.2 
*END

*D_NET *689 3.38427e-05
*CONN
*I *1401:B I *D HAxp5_ASAP7_75t_R
*I *960:Y O *D INVx1_ASAP7_75t_R
*CAP
1 *1401:B 0
2 *960:Y 1.66315e-05
3 *689:10 1.66315e-05
4 *673:8 *689:10 5.79724e-07
*RES
1 *960:Y *689:10 42.6491 
2 *689:10 *1401:B 34.4 
*END

*D_NET *691 2.22541e-05
*CONN
*I *1400:A I *D HAxp5_ASAP7_75t_R
*I *870:Y O *D INVx1_ASAP7_75t_R
*CAP
1 *1400:A 1.11271e-05
2 *870:Y 1.11271e-05
*RES
1 *870:Y *1400:A 39.2134 
*END

*D_NET *692 0.000146851
*CONN
*I *1314:A I *D FAx1_ASAP7_75t_R
*I *1402:B I *D HAxp5_ASAP7_75t_R
*I *1003:Y O *D INVx1_ASAP7_75t_R
*CAP
1 *1314:A 6.39836e-06
2 *1402:B 0
3 *1003:Y 7.61909e-06
4 *692:17 3.60921e-05
5 *692:6 3.73128e-05
6 *692:17 *767:14 2.36401e-05
7 *692:17 *786:8 9.02409e-06
8 *1314:B *1314:A 1.55851e-05
9 *178:8 *692:17 8.146e-06
10 *675:12 *692:6 2.52755e-06
11 *675:12 *692:17 5.0551e-07
12 *675:23 *692:17 0
*RES
1 *1003:Y *692:6 22.5483 
2 *692:6 *1402:B 17.2 
3 *692:6 *692:17 41.6109 
4 *692:17 *1314:A 21.746 
*END

*D_NET *693 1.71013e-05
*CONN
*I *1440:B I *D HAxp5_ASAP7_75t_R
*I *1285:Y O *D INVx1_ASAP7_75t_R
*CAP
1 *1440:B 8.04515e-06
2 *1285:Y 8.04515e-06
3 *1440:A *1440:B 1.01102e-06
*RES
1 *1285:Y *1440:B 39.7482 
*END

*D_NET *694 2.2933e-05
*CONN
*I *1406:A I *D HAxp5_ASAP7_75t_R
*I *1262:Y O *D INVx1_ASAP7_75t_R
*CAP
1 *1406:A 6.22522e-06
2 *1262:Y 4.85511e-06
3 *694:8 1.10803e-05
4 *694:8 *695:8 0
5 *1406:B *1406:A 7.72307e-07
*RES
1 *1262:Y *694:8 37.779 
2 *694:8 *1406:A 37.0741 
*END

*D_NET *690 0.000583678
*CONN
*P multiplicand[0] I
*I *1447:A I *D BUFx3_ASAP7_75t_R
*CAP
1 multiplicand[0] 3.22902e-05
2 *1447:A 0
3 *690:31 2.14998e-06
4 *690:25 2.34968e-05
5 *690:13 0.000151058
6 *690:11 0.000162001
7 *690:11 result[6] 0
8 *690:25 *695:18 0
9 *268:11 *690:11 8.13314e-06
10 *268:13 *690:13 0.000204548
11 *677:8 *690:31 0
*RES
1 multiplicand[0] *690:11 28.8464 
2 *690:11 *690:13 53.2404 
3 *690:13 *690:25 37.252 
4 *690:25 *690:31 35.9956 
5 *690:31 *1447:A 17.2 
*END

*D_NET *658 0.000235077
*CONN
*P multiplicand[10] I
*I *1446:A I *D BUFx4f_ASAP7_75t_R
*CAP
1 multiplicand[10] 8.54272e-05
2 *1446:A 0
3 *658:27 2.55375e-06
4 *658:21 3.21113e-05
5 *658:13 0.000114985
6 *658:27 *696:8 0
*RES
1 multiplicand[10] *658:13 44.9815 
2 *658:13 *658:21 36.1841 
3 *658:21 *658:27 35.8079 
4 *658:27 *1446:A 17.2 
*END

*D_NET *583 0.000547077
*CONN
*P multiplicand[1] I
*I *1445:A I *D BUFx12f_ASAP7_75t_R
*CAP
1 multiplicand[1] 2.72566e-06
2 *1445:A 7.16894e-06
3 *583:27 1.31892e-05
4 *583:17 0.000107709
5 *583:11 0.000104414
6 *583:11 result[1] 2.57981e-06
7 *583:17 *746:24 0.000299154
8 *583:27 *717:10 5.98744e-07
9 *583:27 *832:71 1.70708e-06
10 *315:15 *583:11 5.53352e-06
11 *315:15 *583:17 2.29756e-06
*RES
1 multiplicand[1] *583:11 25.214 
2 *583:11 *583:17 45.7845 
3 *583:17 *583:27 48.5344 
4 *583:27 *1445:A 20.409 
*END

*D_NET *530 0.000361498
*CONN
*P multiplicand[2] I
*I *1444:A I *D BUFx12f_ASAP7_75t_R
*CAP
1 multiplicand[2] 5.3966e-05
2 *1444:A 1.97486e-06
3 *530:29 7.37638e-06
4 *530:17 0.000124808
5 *530:11 0.000173373
6 *530:17 *698:24 0
7 *234:14 *530:29 0
*RES
1 multiplicand[2] *530:11 33.7882 
2 *530:11 *530:17 40.8219 
3 *530:17 *530:29 42.6636 
4 *530:29 *1444:A 35.4697 
*END

*D_NET *397 0.000154196
*CONN
*P multiplicand[3] I
*I *1443:A I *D BUFx12f_ASAP7_75t_R
*CAP
1 multiplicand[3] 4.08083e-05
2 *1443:A 0
3 *397:13 3.62898e-05
4 *397:9 7.70981e-05
*RES
1 multiplicand[3] *397:9 38.3071 
2 *397:9 *397:13 48.2198 
3 *397:13 *1443:A 17.2 
*END

*D_NET *362 0.000344687
*CONN
*P multiplicand[4] I
*I *1442:A I *D BUFx12f_ASAP7_75t_R
*CAP
1 multiplicand[4] 2.8749e-05
2 *1442:A 0
3 *362:29 9.40918e-06
4 *362:21 0.000127588
5 *362:11 0.000146928
6 *362:21 *705:24 0
7 *362:29 *700:8 0
8 *258:11 *362:11 0
9 *260:11 *362:11 3.20127e-05
10 *260:21 *362:21 0
*RES
1 multiplicand[4] *362:11 30.2144 
2 *362:11 *362:21 49.6253 
3 *362:21 *362:29 33.7394 
4 *362:29 *1442:A 34.4 
*END

*D_NET *260 0.000534403
*CONN
*P multiplicand[5] I
*I *1272:A I *D BUFx12f_ASAP7_75t_R
*CAP
1 multiplicand[5] 3.86437e-05
2 *1272:A 0
3 *260:29 2.09846e-05
4 *260:21 9.77123e-05
5 *260:11 0.000115371
6 *260:11 *362:11 3.20127e-05
7 *260:21 *362:21 0
8 *260:29 *701:14 0
9 *260:29 *702:12 0
10 *259:11 *260:11 6.13085e-05
11 *259:21 *260:21 0.00016837
*RES
1 multiplicand[5] *260:11 38.3478 
2 *260:11 *260:21 47.929 
3 *260:21 *260:29 40.0161 
4 *260:29 *1272:A 34.4 
*END

*D_NET *259 0.000483855
*CONN
*P multiplicand[6] I
*I *1238:A I *D BUFx6f_ASAP7_75t_R
*CAP
1 multiplicand[6] 5.26946e-05
2 *1238:A 9.24355e-06
3 *259:29 3.00301e-05
4 *259:21 6.51503e-05
5 *259:11 9.70583e-05
6 *259:11 *260:11 6.13085e-05
7 *259:11 *271:9 0
8 *259:21 *260:21 0.00016837
*RES
1 multiplicand[6] *259:11 40.3988 
2 *259:11 *259:21 38.9323 
3 *259:21 *259:29 43.5297 
4 *259:29 *1238:A 38.6786 
*END

*D_NET *258 0.000270515
*CONN
*P multiplicand[7] I
*I *1228:A I *D BUFx12f_ASAP7_75t_R
*CAP
1 multiplicand[7] 9.51303e-06
2 *1228:A 0
3 *258:29 6.18503e-06
4 *258:21 8.40488e-05
5 *258:11 8.73768e-05
6 *258:11 *362:11 0
7 *258:21 *270:21 5.95213e-05
8 *258:21 *704:24 1.0921e-05
9 *258:21 *705:22 3.04596e-07
10 *258:21 *705:24 0
11 *258:21 *837:70 2.43679e-06
12 *258:29 *501:8 1.02072e-05
13 *258:29 *714:8 0
14 *258:29 *806:29 0
15 *5:16 *258:29 0
*RES
1 multiplicand[7] *258:11 23.3718 
2 *258:11 *258:21 49.6253 
3 *258:21 *258:29 33.523 
4 *258:29 *1228:A 34.4 
*END

*D_NET *350 0.000604065
*CONN
*P multiplicand[8] I
*I *1214:A I *D BUFx12f_ASAP7_75t_R
*I *1612:A I *D BUFx4_ASAP7_75t_R
*CAP
1 multiplicand[8] 5.97944e-05
2 *1214:A 1.97486e-06
3 *1612:A 0
4 *350:58 8.37078e-06
5 *350:39 1.49907e-05
6 *350:27 0.000115789
7 *350:17 0.000186131
8 *350:11 0.000138731
9 *350:17 *704:24 1.44228e-07
10 *350:27 *703:24 1.7845e-05
11 *350:27 *703:36 9.56982e-06
12 *350:27 *704:24 1.38997e-05
13 *350:27 *822:89 0
14 *350:27 *830:67 6.0126e-06
15 *350:39 *822:20 4.98688e-08
16 *350:39 *844:44 3.88327e-06
17 *208:18 *350:58 0
18 *343:11 *350:11 3.72044e-06
19 *349:11 *350:11 7.07944e-06
20 *349:44 *350:27 1.60783e-05
*RES
1 multiplicand[8] *350:11 40.5491 
2 *350:11 *350:17 30.6444 
3 *350:17 *350:27 43.036 
4 *350:27 *350:39 47.6526 
5 *350:39 *1612:A 34.4 
6 *350:17 *350:58 43.0319 
7 *350:58 *1214:A 35.4697 
*END

*D_NET *349 0.000688007
*CONN
*P multiplicand[9] I
*I *1627:A I *D BUFx4_ASAP7_75t_R
*I *1203:A I *D BUFx12f_ASAP7_75t_R
*CAP
1 multiplicand[9] 7.8895e-06
2 *1627:A 0
3 *1203:A 0
4 *349:56 1.52457e-05
5 *349:44 0.000173636
6 *349:33 5.85479e-06
7 *349:25 1.33087e-05
8 *349:13 0.000235249
9 *349:11 7.7295e-05
10 *349:11 *350:11 7.07944e-06
11 *349:25 *705:22 8.88595e-07
12 *349:44 *350:27 1.60783e-05
13 *349:44 *703:36 2.20405e-06
14 *349:44 *822:89 0
15 *349:56 *1433:B 4.82454e-06
16 *349:56 *830:67 5.84462e-07
17 *349:56 *830:73 1.18447e-05
18 *349:56 *844:44 0
19 *244:8 *349:56 0
20 *343:11 *349:11 6.88159e-06
21 *343:21 *349:13 0.000101616
22 *343:21 *349:44 7.3146e-06
23 *343:29 *349:25 2.11604e-07
*RES
1 multiplicand[9] *349:11 23.752 
2 *349:11 *349:13 26.8204 
3 *349:13 *349:25 33.6017 
4 *349:25 *349:33 37.4407 
5 *349:33 *1203:A 17.2 
6 *349:13 *349:44 41.2654 
7 *349:44 *349:56 49.5797 
8 *349:56 *1627:A 34.4 
*END

*D_NET *348 0.000290884
*CONN
*P multiplier[0] I
*I *1193:A I *D BUFx12f_ASAP7_75t_R
*CAP
1 multiplier[0] 5.9602e-05
2 *1193:A 0
3 *348:29 3.0468e-05
4 *348:23 4.41052e-05
5 *348:13 7.32391e-05
6 result[0] *348:13 2.57981e-06
7 *267:20 *348:13 8.08897e-05
*RES
1 multiplier[0] *348:13 45.4373 
2 *348:13 *348:23 46.3105 
3 *348:23 *348:29 36.3245 
4 *348:29 *1193:A 17.2 
*END

*D_NET *343 0.000308246
*CONN
*P multiplier[10] I
*I *1174:A I *D BUFx2_ASAP7_75t_R
*CAP
1 multiplier[10] 1.10454e-05
2 *1174:A 0
3 *343:29 1.17789e-05
4 *343:21 8.32053e-05
5 *343:11 8.24718e-05
6 *343:11 *349:11 6.88159e-06
7 *343:11 *350:11 3.72044e-06
8 *343:21 *349:13 0.000101616
9 *343:21 *349:44 7.3146e-06
10 *343:21 *705:22 0
11 *343:29 *349:25 2.11604e-07
*RES
1 multiplier[10] *343:11 25.803 
2 *343:11 *343:21 48.996 
3 *343:21 *343:29 34.4462 
4 *343:29 *1174:A 34.4 
*END

*D_NET *315 0.00066685
*CONN
*P multiplier[1] I
*I *1120:A I *D BUFx12f_ASAP7_75t_R
*CAP
1 multiplier[1] 2.3259e-05
2 *1120:A 1.09902e-05
3 *315:35 1.71649e-05
4 *315:25 0.000143497
5 *315:19 0.000266294
6 *315:15 0.00015223
7 *315:15 result[1] 6.33835e-07
8 *315:15 *583:11 5.53352e-06
9 *315:15 *583:17 2.29756e-06
10 *315:15 *746:24 2.3073e-06
11 *315:35 *1352:A 1.49407e-08
12 *269:17 *315:25 0
13 *269:25 *315:35 0
14 *275:21 *315:19 4.26264e-05
*RES
1 multiplier[1] *315:15 39.8173 
2 *315:15 *315:19 48.6307 
3 *315:19 *315:25 43.8363 
4 *315:25 *315:35 48.5278 
5 *315:35 *1120:A 20.9438 
*END

*D_NET *275 0.000394961
*CONN
*P multiplier[2] I
*I *1010:A I *D BUFx12f_ASAP7_75t_R
*CAP
1 multiplier[2] 1.364e-05
2 *1010:A 0
3 *275:35 1.86538e-06
4 *275:29 2.44782e-05
5 *275:21 0.000135199
6 *275:15 0.000126227
7 *275:15 result[2] 2.64633e-06
8 *275:15 *750:24 3.51076e-06
9 *275:21 *315:19 4.26264e-05
10 *267:20 *275:21 4.4768e-05
*RES
1 multiplier[2] *275:15 36.0457 
2 *275:15 *275:21 47.195 
3 *275:21 *275:29 33.9049 
4 *275:29 *275:35 35.4325 
5 *275:35 *1010:A 17.2 
*END

*D_NET *274 0.000368793
*CONN
*P multiplier[3] I
*I *968:A I *D BUFx6f_ASAP7_75t_R
*CAP
1 multiplier[3] 8.08113e-06
2 *968:A 5.37521e-06
3 *274:25 1.57012e-05
4 *274:17 0.000164488
5 *274:11 0.000162243
6 *968:A *354:8 1.01102e-06
7 *274:11 result[3] 0
8 *274:17 *733:20 4.35916e-06
9 *274:17 *751:26 0
10 *274:17 *817:115 7.53445e-06
11 *274:17 *835:30 0
12 *274:17 *835:40 0
13 *274:25 *1341:B 0
*RES
1 multiplier[3] *274:11 26.2776 
2 *274:11 *274:17 48.4444 
3 *274:17 *274:25 33.4988 
4 *274:25 *968:A 37.609 
*END

*D_NET *273 0.000151799
*CONN
*P multiplier[4] I
*I *936:A I *D BUFx12f_ASAP7_75t_R
*CAP
1 multiplier[4] 3.96096e-05
2 *936:A 0
3 *273:13 3.62898e-05
4 *273:9 7.58993e-05
*RES
1 multiplier[4] *273:9 38.1194 
2 *273:9 *273:13 48.2198 
3 *273:13 *936:A 17.2 
*END

*D_NET *272 0.000162056
*CONN
*P multiplier[5] I
*I *934:A I *D BUFx6f_ASAP7_75t_R
*CAP
1 multiplier[5] 4.40809e-05
2 *934:A 0
3 *272:13 3.69471e-05
4 *272:11 3.69471e-05
5 *272:9 4.40809e-05
*RES
1 multiplier[5] *272:9 35.4015 
2 *272:9 *272:11 17.2 
3 *272:11 *272:13 33.1329 
4 *272:13 *934:A 34.4 
*END

*D_NET *271 0.000192908
*CONN
*P multiplier[6] I
*I *932:A I *D BUFx12f_ASAP7_75t_R
*CAP
1 multiplier[6] 4.69038e-05
2 *932:A 7.44965e-06
3 *271:13 4.71997e-05
4 *271:11 3.97501e-05
5 *271:9 4.69038e-05
6 *932:A *713:6 4.70139e-06
7 *259:11 *271:9 0
*RES
1 multiplier[6] *271:9 34.7522 
2 *271:9 *271:11 17.2 
3 *271:11 *271:13 35.3856 
4 *271:13 *932:A 39.7482 
*END

*D_NET *270 0.000317279
*CONN
*P multiplier[7] I
*I *930:A I *D BUFx12f_ASAP7_75t_R
*CAP
1 multiplier[7] 4.63658e-05
2 *930:A 7.0418e-06
3 *270:29 2.64287e-05
4 *270:21 7.54711e-05
5 *270:11 0.00010245
6 *270:21 *705:22 0
7 *258:21 *270:21 5.95213e-05
*RES
1 multiplier[7] *270:11 32.4953 
2 *270:11 *270:21 42.3248 
3 *270:21 *270:29 43.0968 
4 *270:29 *930:A 37.609 
*END

*D_NET *269 0.000304624
*CONN
*P multiplier[8] I
*I *928:A I *D BUFx12f_ASAP7_75t_R
*CAP
1 multiplier[8] 5.17606e-06
2 *928:A 0
3 *269:25 1.10447e-05
4 *269:17 0.000147136
5 *269:11 0.000141267
6 *269:17 *315:25 0
7 *269:25 *315:35 0
*RES
1 multiplier[8] *269:11 25.214 
2 *269:11 *269:17 43.5036 
3 *269:17 *269:25 32.9003 
4 *269:25 *928:A 34.4 
*END

*D_NET *268 0.000606598
*CONN
*P multiplier[9] I
*I *926:A I *D BUFx2_ASAP7_75t_R
*CAP
1 multiplier[9] 2.64613e-05
2 *926:A 0
3 *268:31 1.9696e-06
4 *268:25 1.09253e-05
5 *268:13 0.000168528
6 *268:11 0.000186033
7 *268:11 *690:11 8.13314e-06
8 *268:13 *690:13 0.000204548
9 *268:25 *695:18 0
*RES
1 multiplier[9] *268:11 28.2364 
2 *268:11 *268:13 62.0471 
3 *268:13 *268:25 34.0707 
4 *268:25 *268:31 35.8079 
5 *268:31 *926:A 17.2 
*END

*D_NET *695 0.000535571
*CONN
*I *1626:A I *D BUFx6f_ASAP7_75t_R
*I *1213:A I *D AND2x2_ASAP7_75t_R
*I *1447:Y O *D BUFx3_ASAP7_75t_R
*CAP
1 *1626:A 0
2 *1213:A 0
3 *1447:Y 1.07166e-05
4 *695:71 7.25031e-06
5 *695:54 3.16022e-06
6 *695:46 5.42765e-05
7 *695:32 0.000129637
8 *695:24 0.000155167
9 *695:18 9.18425e-05
10 *695:8 3.31627e-05
11 *695:32 *698:82 0
12 *695:32 *854:59 3.30133e-06
13 *695:46 *697:85 6.85833e-07
14 *695:46 *698:26 3.52673e-05
15 *695:46 *854:59 0
16 *695:54 *697:70 0
17 *695:71 *836:21 0
18 *85:30 *695:32 0
19 *268:25 *695:18 0
20 *513:10 *695:71 2.68933e-07
21 *524:26 *695:46 5.76958e-06
22 *536:26 *695:46 5.06529e-06
23 *690:25 *695:18 0
24 *694:8 *695:8 0
*RES
1 *1447:Y *695:8 42.9414 
2 *695:8 *695:18 49.0094 
3 *695:18 *695:24 27.5376 
4 *695:24 *695:32 38.4997 
5 *695:32 *695:46 48.7738 
6 *695:46 *695:54 36.1267 
7 *695:54 *1213:A 17.2 
8 *695:24 *695:71 49.0343 
9 *695:71 *1626:A 17.2 
*END

*D_NET *704 0.00147999
*CONN
*I *1635:A I *D BUFx6f_ASAP7_75t_R
*I *933:A I *D AND2x2_ASAP7_75t_R
*I *1195:B I *D AND2x4_ASAP7_75t_R
*I *1216:A I *D AND2x2_ASAP7_75t_R
*I *1214:Y O *D BUFx12f_ASAP7_75t_R
*CAP
1 *1635:A 1.34913e-05
2 *933:A 3.67443e-06
3 *1195:B 0
4 *1216:A 0
5 *1214:Y 3.00786e-06
6 *704:105 3.66895e-05
7 *704:86 1.30025e-05
8 *704:67 3.785e-05
9 *704:50 1.15931e-05
10 *704:40 8.35663e-05
11 *704:36 0.000131565
12 *704:30 0.000128572
13 *704:24 0.000149952
14 *704:18 0.000140186
15 *704:8 1.05014e-05
16 *704:24 *705:22 0.000226491
17 *704:30 *830:67 0
18 *704:36 *705:36 1.30893e-07
19 *704:36 *705:57 2.11404e-05
20 *704:36 *714:54 2.72006e-06
21 *704:36 *822:20 2.93198e-05
22 *704:36 *822:46 0
23 *704:36 *830:67 5.55937e-06
24 *704:36 *837:45 0.000237687
25 *704:40 *837:45 0.000114704
26 *704:50 *708:42 1.49407e-08
27 *704:50 *837:45 2.99518e-06
28 *704:50 *837:53 6.85833e-07
29 *704:86 *705:67 1.24672e-08
30 *704:105 *822:20 4.33e-06
31 *704:105 *822:36 0
32 *704:105 *822:89 0
33 *1168:A *1635:A 0
34 *1316:B *704:105 1.08476e-05
35 *1316:CI *704:105 4.19815e-06
36 *1333:B *704:67 1.73917e-06
37 *25:8 *704:86 2.95693e-06
38 *42:20 *704:40 0
39 *42:20 *704:67 2.93124e-06
40 *43:20 *704:67 0
41 *258:21 *704:24 1.0921e-05
42 *350:17 *704:24 1.44228e-07
43 *350:27 *704:24 1.38997e-05
44 *385:10 *704:67 0
45 *410:8 *1635:A 1.59615e-06
46 *444:20 *704:36 2.48299e-06
47 *444:26 *704:24 0
48 *488:18 *704:105 0
49 *703:20 *704:24 5.61032e-06
50 *703:24 *704:24 0
51 *703:55 *704:24 0
52 *703:55 *704:30 1.20197e-05
53 *703:59 *704:36 0
54 *703:109 *704:67 1.19943e-06
*RES
1 *1214:Y *704:8 35.9956 
2 *704:8 *704:18 42.9032 
3 *704:18 *704:24 49.8157 
4 *704:24 *704:30 24.4192 
5 *704:30 *704:36 46.429 
6 *704:36 *704:40 24.1547 
7 *704:40 *704:50 33.554 
8 *704:50 *1216:A 34.4 
9 *704:40 *704:67 46.1824 
10 *704:67 *1195:B 34.4 
11 *704:36 *704:86 44.2188 
12 *704:86 *933:A 36.0045 
13 *704:30 *704:105 40.2339 
14 *704:105 *1635:A 39.7482 
*END

*D_NET *705 0.00145391
*CONN
*I *967:A I *D AND2x2_ASAP7_75t_R
*I *935:A I *D AND2x2_ASAP7_75t_R
*I *1175:A I *D AND2x2_ASAP7_75t_R
*I *1239:A I *D AND2x2_ASAP7_75t_R
*I *1215:B I *D AND2x4_ASAP7_75t_R
*I *1643:A I *D BUFx3_ASAP7_75t_R
*I *1203:Y O *D BUFx12f_ASAP7_75t_R
*CAP
1 *967:A 0
2 *935:A 0
3 *1175:A 0
4 *1239:A 0
5 *1215:B 3.02412e-06
6 *1643:A 0
7 *1203:Y 7.74836e-06
8 *705:121 3.00936e-06
9 *705:108 1.07422e-05
10 *705:79 4.65889e-05
11 *705:73 7.21763e-05
12 *705:67 9.64872e-05
13 *705:61 0.000112313
14 *705:59 3.67046e-05
15 *705:57 4.22211e-05
16 *705:42 7.10914e-07
17 *705:36 6.52741e-06
18 *705:24 0.000102422
19 *705:22 0.000177626
20 *705:18 0.000128499
21 *705:8 1.30064e-05
22 *705:36 *714:44 3.64285e-06
23 *705:36 *714:54 6.7009e-07
24 *705:36 *822:36 4.31133e-06
25 *705:36 *837:39 2.10569e-07
26 *705:36 *855:18 4.17004e-06
27 *705:42 *806:8 2.03413e-06
28 *705:61 *713:33 0
29 *705:67 *710:101 1.95276e-06
30 *705:67 *822:46 2.05775e-06
31 *705:79 *1194:A 6.0212e-06
32 *705:79 *1194:B 4.41457e-06
33 *705:79 *1239:B 3.68287e-06
34 *705:108 *712:38 0
35 *705:121 *713:33 0
36 *1318:B *705:121 1.00899e-06
37 *1324:B *705:108 1.20762e-05
38 *1333:B *705:79 0
39 *11:8 *705:121 1.00899e-06
40 *258:21 *705:22 3.04596e-07
41 *258:21 *705:24 0
42 *270:21 *705:22 0
43 *343:21 *705:22 0
44 *349:25 *705:22 8.88595e-07
45 *362:21 *705:24 0
46 *385:8 *705:79 2.68251e-06
47 *408:10 *705:108 3.17441e-06
48 *508:14 *705:108 3.88115e-06
49 *700:20 *705:22 0
50 *700:24 *705:24 0.000113136
51 *700:24 *705:57 5.68174e-05
52 *701:20 *705:61 6.73285e-07
53 *703:59 *705:57 0.000106135
54 *703:63 *705:57 8.95226e-06
55 *703:78 *705:67 2.38961e-06
56 *703:78 *705:73 3.05118e-08
57 *704:24 *705:22 0.000226491
58 *704:36 *705:36 1.30893e-07
59 *704:36 *705:57 2.11404e-05
60 *704:86 *705:67 1.24672e-08
*RES
1 *1203:Y *705:8 38.9992 
2 *705:8 *705:18 42.1872 
3 *705:18 *705:22 46.1669 
4 *705:22 *705:24 16.4125 
5 *705:24 *705:36 33.7668 
6 *705:36 *705:42 35.057 
7 *705:42 *1643:A 17.2 
8 *705:24 *705:57 38.2916 
9 *705:57 *705:59 11.8 
10 *705:59 *705:61 9.79382 
11 *705:61 *705:67 44.4103 
12 *705:67 *705:73 33.8646 
13 *705:73 *705:79 46.534 
14 *705:79 *1215:B 36.0045 
15 *705:73 *1239:A 17.2 
16 *705:67 *1175:A 34.4 
17 *705:61 *705:108 43.0157 
18 *705:108 *935:A 17.2 
19 *705:59 *705:121 36.0564 
20 *705:121 *967:A 17.2 
*END

*D_NET *823 0.000131185
*CONN
*I *1186:A1 I *D AOI21x1_ASAP7_75t_R
*I *1613:Y O *D BUFx3_ASAP7_75t_R
*CAP
1 *1186:A1 0
2 *1613:Y 1.1339e-05
3 *823:28 5.69236e-06
4 *823:20 3.5781e-05
5 *823:14 3.83536e-05
6 *823:8 1.9604e-05
7 *1119:B *823:8 0
8 *1119:B *823:20 0
9 *1539:A *823:20 1.02586e-05
10 *1613:A *823:8 0
11 *347:10 *823:28 0
12 *726:8 *823:20 3.25683e-06
13 *731:8 *823:20 3.26939e-06
14 *731:8 *823:28 1.98264e-06
15 *763:10 *823:28 1.64764e-06
*RES
1 *1613:Y *823:8 42.2843 
2 *823:8 *823:14 38.1438 
3 *823:14 *823:20 37.2189 
4 *823:20 *823:28 38.8203 
5 *823:28 *1186:A1 17.2 
*END

*D_NET *758 2.09862e-05
*CONN
*I *1130:A1 I *D OAI21x1_ASAP7_75t_R
*I *1548:Y O *D BUFx3_ASAP7_75t_R
*CAP
1 *1130:A1 1.04931e-05
2 *1548:Y 1.04931e-05
*RES
1 *1548:Y *1130:A1 40.2831 
*END

*D_NET *759 1.33559e-05
*CONN
*I *1124:A I *D NOR2x1_ASAP7_75t_R
*I *1549:Y O *D BUFx3_ASAP7_75t_R
*CAP
1 *1124:A 5.94675e-06
2 *1549:Y 5.94675e-06
3 *723:6 *1124:A 1.46238e-06
*RES
1 *1549:Y *1124:A 37.0741 
*END

*D_NET *760 6.65258e-05
*CONN
*I *1058:A I *D XOR2x2_ASAP7_75t_R
*I *1550:Y O *D BUFx3_ASAP7_75t_R
*CAP
1 *1058:A 0
2 *1550:Y 3.32629e-05
3 *760:10 3.32629e-05
*RES
1 *1550:Y *760:10 49.5168 
2 *760:10 *1058:A 34.4 
*END

*D_NET *761 7.48048e-05
*CONN
*I *1155:A1 I *D OA221x2_ASAP7_75t_R
*I *1551:Y O *D BUFx3_ASAP7_75t_R
*CAP
1 *1155:A1 0
2 *1551:Y 0
3 *761:10 3.21549e-05
4 *761:6 3.21549e-05
5 *761:10 *1155:B2 5.49212e-07
6 *1145:B *761:10 0
7 *1154:A2 *761:10 0
8 *176:14 *761:10 0
9 *252:23 *761:10 9.94583e-06
10 *317:12 *761:10 0
11 *320:27 *761:10 0
12 *330:8 *761:10 0
*RES
1 *1551:Y *761:6 34.4 
2 *761:6 *761:10 40.853 
3 *761:10 *1155:A1 17.2 
*END

*D_NET *824 2.15317e-05
*CONN
*I *1050:A I *D XOR2x2_ASAP7_75t_R
*I *1614:Y O *D BUFx3_ASAP7_75t_R
*CAP
1 *1050:A 2.31949e-06
2 *1614:Y 8.06722e-06
3 *824:8 1.03867e-05
4 *283:18 *824:8 0
5 *720:6 *1050:A 7.58265e-07
*RES
1 *1614:Y *824:8 38.9053 
2 *824:8 *1050:A 36.0045 
*END

*D_NET *762 3.97381e-05
*CONN
*I *1039:A I *D XOR2x2_ASAP7_75t_R
*I *1552:Y O *D BUFx3_ASAP7_75t_R
*CAP
1 *1039:A 1.98691e-05
2 *1552:Y 1.98691e-05
*RES
1 *1552:Y *1039:A 46.1661 
*END

*D_NET *763 4.101e-05
*CONN
*I *1186:A2 I *D AOI21x1_ASAP7_75t_R
*I *1553:Y O *D BUFx3_ASAP7_75t_R
*CAP
1 *1186:A2 0
2 *1553:Y 1.74271e-05
3 *763:10 1.74271e-05
4 *763:10 *823:28 1.64764e-06
5 *1553:A *763:10 1.73158e-06
6 *347:10 *763:10 2.77657e-06
*RES
1 *1553:Y *763:10 43.7754 
2 *763:10 *1186:A2 34.4 
*END

*D_NET *764 0.000181575
*CONN
*I *1145:A I *D OR2x2_ASAP7_75t_R
*I *1554:Y O *D BUFx3_ASAP7_75t_R
*CAP
1 *1145:A 4.23652e-06
2 *1554:Y 0
3 *764:8 4.46505e-05
4 *764:6 4.0414e-05
5 *764:8 *790:10 0
6 *1145:B *1145:A 2.66797e-07
7 *1149:C *764:8 5.37866e-07
8 *1551:A *764:8 3.38327e-05
9 *188:16 *764:8 8.2174e-07
10 *252:23 *1145:A 1.25483e-05
11 *252:23 *764:8 0
12 *308:10 *764:8 0
13 *312:14 *764:8 3.79923e-06
14 *317:12 *764:8 2.22736e-06
15 *317:21 *764:8 1.28246e-05
16 *329:8 *764:8 0
17 *335:16 *764:8 2.54154e-05
*RES
1 *1554:Y *764:6 34.4 
2 *764:6 *764:8 38.2953 
3 *764:8 *1145:A 38.1438 
*END

*D_NET *706 0.00110815
*CONN
*I *1624:A I *D BUFx12f_ASAP7_75t_R
*I *1240:B I *D AND2x2_ASAP7_75t_R
*I *1239:B I *D AND2x2_ASAP7_75t_R
*I *1273:B I *D AND2x4_ASAP7_75t_R
*I *1193:Y O *D BUFx12f_ASAP7_75t_R
*CAP
1 *1624:A 2.49375e-05
2 *1240:B 0
3 *1239:B 1.33761e-05
4 *1273:B 1.86729e-05
5 *1193:Y 0
6 *706:71 3.82995e-05
7 *706:63 2.59107e-05
8 *706:61 2.16411e-05
9 *706:38 4.94316e-05
10 *706:26 0.000112024
11 *706:22 6.41188e-05
12 *706:16 3.87746e-05
13 *706:6 6.02046e-05
14 *1273:B *709:44 5.52807e-07
15 *1624:A *796:19 0
16 *1624:A *834:10 0
17 *706:16 *789:32 2.72046e-07
18 *706:16 *789:59 2.19947e-05
19 *706:16 *832:33 2.49841e-06
20 *706:16 *832:37 1.65814e-05
21 *706:16 *832:84 1.36581e-06
22 *706:26 *710:74 0.000276842
23 *706:26 *789:24 5.70025e-05
24 *706:71 *710:101 0
25 *1334:B *1239:B 5.00394e-06
26 *41:10 *1273:B 1.40354e-06
27 *42:10 *1239:B 0
28 *42:10 *706:61 0
29 *42:20 *706:38 0
30 *42:28 *706:26 0.000205747
31 *363:8 *1273:B 1.02506e-06
32 *371:8 *706:63 0
33 *371:8 *706:71 0
34 *371:20 *706:61 0
35 *371:24 *706:26 0
36 *385:10 *1239:B 2.71878e-05
37 *385:10 *706:71 0
38 *696:43 *706:38 1.64773e-05
39 *696:43 *706:61 3.0293e-07
40 *699:26 *706:22 2.81517e-06
41 *703:99 *706:61 0
42 *703:109 *706:61 0
43 *705:79 *1239:B 3.68287e-06
*RES
1 *1193:Y *706:6 34.4 
2 *706:6 *706:16 41.6227 
3 *706:16 *706:22 20.8078 
4 *706:22 *706:26 49.4313 
5 *706:26 *706:38 49.4838 
6 *706:38 *1273:B 44.4785 
7 *706:26 *706:61 49.5639 
8 *706:61 *706:63 0.844749 
9 *706:63 *706:71 48.2241 
10 *706:71 *1239:B 47.8593 
11 *706:63 *1240:B 34.4 
12 *706:6 *1624:A 48.7589 
*END

*D_NET *825 0.000207255
*CONN
*I *1095:B I *D AND2x2_ASAP7_75t_R
*I *1066:B I *D OA21x2_ASAP7_75t_R
*I *1615:Y O *D BUFx3_ASAP7_75t_R
*CAP
1 *1095:B 0
2 *1066:B 0
3 *1615:Y 2.47841e-05
4 *825:28 9.70895e-06
5 *825:22 2.84122e-05
6 *825:14 3.79389e-05
7 *825:10 4.40198e-05
8 *287:12 *825:28 0
9 *287:18 *825:22 4.87564e-06
10 *287:18 *825:28 0
11 *289:32 *825:22 3.91501e-06
12 *289:32 *825:28 6.59666e-06
13 *295:23 *825:10 2.47522e-06
14 *297:14 *825:10 9.49598e-06
15 *774:16 *825:22 9.81412e-07
16 *774:16 *825:28 4.96183e-06
17 *774:31 *825:28 4.56177e-06
18 *782:46 *825:14 1.41582e-05
19 *783:33 *825:22 1.03694e-05
*RES
1 *1615:Y *825:10 44.7317 
2 *825:10 *825:14 26.292 
3 *825:14 *825:22 49.4638 
4 *825:22 *825:28 43.4107 
5 *825:28 *1066:B 17.2 
6 *825:14 *1095:B 17.2 
*END

*D_NET *765 0.000164262
*CONN
*I *1086:C I *D AND3x1_ASAP7_75t_R
*I *1062:A I *D NAND2x1_ASAP7_75t_R
*I *1555:Y O *D BUFx3_ASAP7_75t_R
*CAP
1 *1086:C 1.45599e-05
2 *1062:A 9.39964e-06
3 *1555:Y 3.25684e-06
4 *765:8 2.72164e-05
5 *1062:A *1063:A 1.58887e-05
6 *1062:A *846:14 3.94592e-06
7 *765:8 *846:14 1.29643e-06
8 *765:8 *846:29 4.10981e-06
9 *290:16 *1086:C 3.56596e-05
10 *290:18 *1062:A 1.21149e-06
11 *291:16 *1062:A 3.38221e-06
12 *291:16 *765:8 5.2059e-06
13 *297:8 *1086:C 3.91296e-05
*RES
1 *1555:Y *765:8 38.9053 
2 *765:8 *1062:A 43.4107 
3 *765:8 *1086:C 47.7706 
*END

*D_NET *766 0.00017632
*CONN
*I *1127:A I *D INVx1_ASAP7_75t_R
*I *1128:B I *D AND3x1_ASAP7_75t_R
*I *1126:D I *D AND4x1_ASAP7_75t_R
*I *1556:Y O *D BUFx3_ASAP7_75t_R
*CAP
1 *1127:A 1.81033e-05
2 *1128:B 0
3 *1126:D 0
4 *1556:Y 0
5 *766:29 6.38784e-06
6 *766:14 1.0692e-05
7 *766:10 3.26209e-05
8 *766:4 4.64201e-05
9 *766:10 *1123:B 3.71847e-06
10 *766:10 *773:92 5.67735e-06
11 *766:10 *826:21 1.12894e-06
12 *766:14 *1123:B 1.2768e-05
13 *766:29 *1123:B 1.30104e-05
14 *1123:A *766:14 1.79628e-05
15 *316:8 *766:10 4.1009e-06
16 *316:16 *766:29 5.0551e-07
17 *316:26 *766:29 3.22378e-06
18 *324:14 *766:10 0
*RES
1 *1556:Y *766:4 17.2 
2 *766:4 *766:10 34.9662 
3 *766:10 *766:14 22.5483 
4 *766:14 *1126:D 17.2 
5 *766:14 *766:29 41.1013 
6 *766:29 *1128:B 17.2 
7 *766:4 *1127:A 25.2224 
*END

*D_NET *826 0.000172123
*CONN
*I *1123:B I *D OR2x2_ASAP7_75t_R
*I *1128:C I *D AND3x1_ASAP7_75t_R
*I *1141:A2 I *D AO21x1_ASAP7_75t_R
*I *1616:Y O *D BUFx3_ASAP7_75t_R
*CAP
1 *1123:B 1.33944e-05
2 *1128:C 0
3 *1141:A2 0
4 *1616:Y 3.57983e-06
5 *826:21 2.10863e-05
6 *826:14 2.91555e-05
7 *826:8 4.04272e-05
8 *307:14 *826:14 0
9 *307:14 *826:21 0
10 *316:8 *826:14 4.83862e-06
11 *316:8 *826:21 1.31716e-05
12 *316:26 *1123:B 2.59962e-07
13 *328:8 *826:14 1.55843e-05
14 *766:10 *1123:B 3.71847e-06
15 *766:10 *826:21 1.12894e-06
16 *766:14 *1123:B 1.2768e-05
17 *766:29 *1123:B 1.30104e-05
*RES
1 *1616:Y *826:8 38.1438 
2 *826:8 *826:14 37.0735 
3 *826:14 *1141:A2 17.2 
4 *826:8 *826:21 6.75799 
5 *826:21 *1128:C 34.4 
6 *826:21 *1123:B 44.9018 
*END

*D_NET *768 0.000286334
*CONN
*I *1096:A2 I *D AO221x2_ASAP7_75t_R
*I *1067:B I *D XOR2x2_ASAP7_75t_R
*I *1088:A2 I *D AO221x1_ASAP7_75t_R
*I *1558:Y O *D BUFx3_ASAP7_75t_R
*CAP
1 *1096:A2 1.66792e-05
2 *1067:B 0
3 *1088:A2 1.68604e-06
4 *1558:Y 4.67354e-05
5 *768:25 5.00854e-05
6 *768:12 3.84033e-05
7 *768:6 5.00465e-05
8 *1088:A2 *782:54 1.44167e-06
9 *768:6 *1091:B 5.19552e-07
10 *768:6 *783:8 1.01102e-06
11 *768:6 *838:71 2.27479e-06
12 *768:12 *777:18 1.30143e-05
13 *768:25 *782:54 3.48165e-06
14 *768:25 *783:18 9.97906e-07
15 *1091:A *768:6 1.3659e-05
16 *283:20 *1096:A2 3.66303e-06
17 *283:20 *768:25 2.8573e-06
18 *289:32 *1096:A2 3.71555e-06
19 *289:47 *1096:A2 0
20 *291:26 *768:12 5.48875e-06
21 *299:10 *768:25 1.02506e-06
22 *306:12 *1096:A2 2.92664e-06
23 *306:12 *768:25 2.92664e-06
24 *724:8 *768:25 2.36954e-05
*RES
1 *1558:Y *768:6 38.0582 
2 *768:6 *768:12 38.9053 
3 *768:12 *1088:A2 18.2696 
4 *768:12 *768:25 42.6805 
5 *768:25 *1067:B 34.4 
6 *768:25 *1096:A2 48.2808 
*END

*D_NET *769 0.000322134
*CONN
*I *1058:B I *D XOR2x2_ASAP7_75t_R
*I *1061:B I *D OR3x1_ASAP7_75t_R
*I *1064:B I *D OR2x2_ASAP7_75t_R
*I *1559:Y O *D BUFx6f_ASAP7_75t_R
*CAP
1 *1058:B 1.86538e-06
2 *1061:B 0
3 *1064:B 0
4 *1559:Y 5.50323e-06
5 *769:38 0.000105571
6 *769:29 4.45888e-06
7 *769:21 0.000137603
8 *769:6 3.49414e-05
9 *769:6 *772:23 2.52755e-07
10 *183:6 *769:6 2.28976e-06
11 *287:12 *769:21 0
12 *287:18 *769:21 0
13 *287:18 *769:29 6.66291e-06
14 *289:26 *769:38 1.1208e-06
15 *291:8 *769:21 1.72783e-05
16 *292:8 *769:29 4.07212e-06
17 *298:14 *769:29 5.15209e-07
*RES
1 *1559:Y *769:6 19.8741 
2 *769:6 *1064:B 17.2 
3 *769:6 *769:21 47.0835 
4 *769:21 *769:29 37.8162 
5 *769:29 *1061:B 17.2 
6 *769:21 *769:38 49.4493 
7 *769:38 *1058:B 35.4325 
*END

*D_NET *771 0.000167954
*CONN
*I *1042:B I *D XOR2x2_ASAP7_75t_R
*I *1044:A1 I *D OA21x2_ASAP7_75t_R
*I *1561:Y O *D BUFx3_ASAP7_75t_R
*CAP
1 *1042:B 0
2 *1044:A1 0
3 *1561:Y 4.06645e-06
4 *771:19 3.41848e-05
5 *771:15 5.83525e-05
6 *771:6 2.82341e-05
7 *771:15 *775:39 0
8 *771:19 *776:10 0
9 *771:19 *847:10 0
10 *1044:B *771:6 2.0895e-06
11 *1044:B *771:15 2.0895e-06
12 *1045:B *771:15 0
13 *1048:C *771:19 0
14 *278:14 *771:15 4.41457e-06
15 *281:38 *771:19 4.42421e-06
16 *281:44 *771:19 0
17 *282:10 *771:19 3.00988e-05
*RES
1 *1561:Y *771:6 19.3393 
2 *771:6 *1044:A1 17.2 
3 *771:6 *771:15 28.9662 
4 *771:15 *771:19 44.232 
5 *771:19 *1042:B 17.2 
*END

*D_NET *772 0.000158209
*CONN
*I *1064:A I *D OR2x2_ASAP7_75t_R
*I *1636:A I *D BUFx3_ASAP7_75t_R
*I *1562:Y O *D BUFx3_ASAP7_75t_R
*CAP
1 *1064:A 0
2 *1636:A 0
3 *1562:Y 1.62731e-05
4 *772:23 4.86733e-05
5 *772:10 6.49464e-05
6 *772:10 *782:16 8.4825e-06
7 *772:10 *782:18 0
8 *772:10 *782:42 5.07932e-06
9 *772:23 *782:42 2.29213e-06
10 *772:23 *843:41 0
11 *1555:A *772:23 2.05284e-06
12 *183:6 *772:23 9.67251e-06
13 *183:10 *772:23 0
14 *290:18 *772:23 4.84697e-07
15 *291:8 *772:23 0
16 *769:6 *772:23 2.52755e-07
*RES
1 *1562:Y *772:10 43.7188 
2 *772:10 *1636:A 34.4 
3 *772:10 *772:23 49.2685 
4 *772:23 *1064:A 17.2 
*END

*D_NET *774 0.000449335
*CONN
*I *1054:A I *D XOR2x2_ASAP7_75t_R
*I *1091:B I *D OR3x1_ASAP7_75t_R
*I *1564:Y O *D BUFx3_ASAP7_75t_R
*CAP
1 *1054:A 0
2 *1091:B 9.14588e-06
3 *1564:Y 9.57774e-06
4 *774:35 2.50772e-05
5 *774:31 4.45376e-05
6 *774:16 4.81813e-05
7 *774:14 8.60627e-05
8 *774:8 3.71446e-05
9 *774:16 *777:18 0
10 *774:16 *783:10 4.73699e-06
11 *774:16 *783:33 4.27283e-06
12 *774:16 *825:22 9.81412e-07
13 *774:16 *825:28 4.96183e-06
14 *774:31 *777:18 0
15 *774:31 *825:28 4.56177e-06
16 *774:35 *1050:B 0
17 *774:35 *777:18 0
18 *1091:A *774:16 1.19435e-05
19 *1096:B2 *774:16 5.15209e-07
20 *1096:B2 *774:31 5.52264e-06
21 *286:10 *774:35 4.33555e-07
22 *287:10 *774:35 0
23 *287:12 *774:8 6.65157e-06
24 *287:12 *774:31 0
25 *287:12 *774:35 0
26 *287:22 *774:16 5.72841e-05
27 *288:8 *774:35 8.3257e-06
28 *291:8 *774:8 0
29 *294:6 *774:14 0
30 *294:21 *774:14 0
31 *294:21 *774:31 2.22736e-06
32 *298:18 *774:16 5.9765e-05
33 *299:10 *774:16 1.49407e-08
34 *304:8 *774:31 7.58265e-07
35 *305:8 *774:16 1.61317e-05
36 *768:6 *1091:B 5.19552e-07
*RES
1 *1564:Y *774:8 43.4107 
2 *774:8 *774:14 45.6313 
3 *774:14 *774:16 41.6743 
4 *774:16 *1091:B 38.6786 
5 *774:14 *774:31 33.3901 
6 *774:31 *774:35 34.6581 
7 *774:35 *1054:A 34.4 
*END

*D_NET *707 0.000767351
*CONN
*I *1608:A I *D BUFx3_ASAP7_75t_R
*I *1006:B I *D AND2x2_ASAP7_75t_R
*I *1623:A I *D BUFx3_ASAP7_75t_R
*I *980:B I *D AND2x2_ASAP7_75t_R
*I *997:B I *D AND2x2_ASAP7_75t_R
*I *1174:Y O *D BUFx2_ASAP7_75t_R
*CAP
1 *1608:A 0
2 *1006:B 0
3 *1623:A 0
4 *980:B 5.50451e-06
5 *997:B 3.70047e-06
6 *1174:Y 3.94624e-05
7 *707:64 2.00595e-05
8 *707:49 5.53877e-05
9 *707:38 6.69985e-05
10 *707:36 4.25272e-05
11 *707:32 2.05249e-05
12 *707:26 3.53372e-05
13 *707:20 9.30467e-05
14 *707:18 8.50144e-05
15 *707:14 2.91777e-05
16 *707:10 3.13115e-05
17 *707:6 5.74289e-05
18 *997:B *997:A 4.49469e-06
19 *707:6 *1009:A 6.39911e-06
20 *707:6 *818:27 2.65066e-05
21 *707:10 *884:B 0
22 *707:10 *818:10 4.06449e-05
23 *707:10 *822:126 1.59716e-06
24 *707:20 *1007:A 0
25 *707:20 *1595:A 0
26 *707:20 *716:101 0
27 *707:20 *794:21 0
28 *707:20 *818:48 0
29 *707:32 *1006:A 5.22376e-07
30 *707:32 *716:97 0
31 *707:36 *1006:A 3.16328e-06
32 *707:38 *997:A 5.52807e-07
33 *707:38 *716:91 6.78894e-06
34 *707:38 *716:97 2.08489e-06
35 *707:49 *880:B 2.68933e-07
36 *707:49 *997:A 1.07573e-06
37 *707:49 *716:69 3.61067e-06
38 *707:49 *716:81 5.79724e-07
39 *707:64 *716:69 1.09067e-06
40 *707:64 *841:21 1.60115e-05
41 *1136:A *707:26 5.8714e-06
42 *1345:A *707:38 3.79494e-06
43 *6:7 *707:26 2.03526e-06
44 *6:9 *707:32 8.06436e-06
45 *95:8 *707:20 0
46 *209:10 *707:20 1.26529e-06
47 *454:12 *707:38 0
48 *466:10 *707:20 0
49 *473:8 *707:49 0
50 *484:8 *707:49 0
51 *484:8 *707:64 0
52 *511:14 *707:20 0
53 *541:40 *707:49 2.14551e-06
54 *542:10 *707:38 1.09842e-06
55 *543:10 *707:20 0
56 *558:8 *707:20 0
57 *559:12 *707:14 5.7953e-06
58 *604:14 *707:64 6.03635e-06
59 *606:8 *707:38 2.02788e-05
60 *609:8 *707:10 0
61 *616:10 *707:64 2.25696e-06
62 *621:8 *707:6 6.5975e-06
63 *703:44 *707:20 1.23746e-06
*RES
1 *1174:Y *707:6 42.3368 
2 *707:6 *707:10 33.5318 
3 *707:10 *707:14 25.2224 
4 *707:14 *707:18 25.2224 
5 *707:18 *707:20 51.2481 
6 *707:20 *707:26 47.7706 
7 *707:26 *707:32 25.0276 
8 *707:32 *707:36 21.4786 
9 *707:36 *707:38 29.2846 
10 *707:38 *997:B 37.609 
11 *707:38 *707:49 22.5266 
12 *707:49 *980:B 37.0741 
13 *707:49 *707:64 33.4431 
14 *707:64 *1623:A 17.2 
15 *707:32 *1006:B 17.2 
16 *707:14 *1608:A 17.2 
*END

*D_NET *776 3.13873e-05
*CONN
*I *1045:A I *D XOR2x2_ASAP7_75t_R
*I *1566:Y O *D BUFx3_ASAP7_75t_R
*CAP
1 *1045:A 0
2 *1566:Y 1.54325e-05
3 *776:10 1.54325e-05
4 *281:38 *776:10 5.22376e-07
5 *283:10 *776:10 0
6 *771:19 *776:10 0
*RES
1 *1566:Y *776:10 42.6491 
2 *776:10 *1045:A 34.4 
*END

*D_NET *775 0.000314105
*CONN
*I *1051:B I *D OR2x2_ASAP7_75t_R
*I *1047:A1 I *D OA21x2_ASAP7_75t_R
*I *1048:A I *D OR3x1_ASAP7_75t_R
*I *1566:A I *D BUFx3_ASAP7_75t_R
*I *1046:C I *D OR3x1_ASAP7_75t_R
*I *1565:Y O *D BUFx3_ASAP7_75t_R
*CAP
1 *1051:B 7.20501e-06
2 *1047:A1 0
3 *1048:A 3.82842e-06
4 *1566:A 1.16296e-05
5 *1046:C 1.3559e-05
6 *1565:Y 0
7 *775:39 3.1519e-05
8 *775:31 3.52551e-05
9 *775:20 4.53898e-05
10 *775:14 4.17451e-05
11 *775:4 2.86565e-05
12 *775:14 *821:14 4.42421e-06
13 *775:20 *1048:B 1.04585e-07
14 *775:20 *821:8 5.67747e-07
15 *775:20 *821:38 8.06436e-06
16 *775:20 *821:46 0
17 *775:31 *1048:B 5.09299e-06
18 *775:39 *1048:B 8.60306e-07
19 *775:39 *821:8 1.00648e-06
20 *1044:B *775:39 8.23084e-06
21 *1046:B *1046:C 6.92634e-06
22 *186:8 *775:14 0
23 *186:8 *775:20 0
24 *186:12 *775:14 5.41446e-06
25 *186:18 *775:14 1.89962e-06
26 *186:18 *775:20 1.12894e-06
27 *187:8 *775:20 1.9076e-06
28 *278:14 *1048:A 4.83862e-06
29 *278:14 *1566:A 0
30 *278:14 *775:39 1.95451e-05
31 *280:20 *1566:A 1.49407e-08
32 *281:38 *1566:A 8.63213e-06
33 *282:10 *1566:A 1.66584e-05
34 *771:15 *775:39 0
*RES
1 *1565:Y *775:4 17.2 
2 *775:4 *775:14 47.6893 
3 *775:14 *775:20 49.6055 
4 *775:20 *1046:C 25.7572 
5 *775:20 *775:31 25.2224 
6 *775:31 *775:39 48.1107 
7 *775:39 *1566:A 43.7188 
8 *775:31 *1048:A 37.1591 
9 *775:14 *1047:A1 17.2 
10 *775:4 *1051:B 19.8741 
*END

*D_NET *777 0.000441378
*CONN
*I *1053:A1 I *D OA21x2_ASAP7_75t_R
*I *1050:B I *D XOR2x2_ASAP7_75t_R
*I *1091:C I *D OR3x1_ASAP7_75t_R
*I *1567:Y O *D BUFx3_ASAP7_75t_R
*CAP
1 *1053:A1 0
2 *1050:B 1.24555e-05
3 *1091:C 0
4 *1567:Y 7.04049e-06
5 *777:18 6.18594e-05
6 *777:16 0.000100997
7 *777:12 3.52712e-05
8 *777:6 1.563e-05
9 *777:18 *1096:A1 3.085e-05
10 *777:18 *782:48 3.14574e-06
11 *777:18 *782:54 4.40961e-05
12 *777:18 *783:41 7.87384e-06
13 *1053:B *777:6 3.56648e-06
14 *1096:B2 *777:18 1.57451e-05
15 *172:12 *777:12 6.6421e-06
16 *172:14 *777:12 1.65843e-06
17 *283:18 *1050:B 3.42518e-07
18 *283:18 *777:18 1.38885e-05
19 *283:20 *777:18 3.88464e-05
20 *286:10 *777:12 0
21 *291:26 *777:18 3.26778e-06
22 *299:10 *777:18 2.29141e-05
23 *305:8 *777:18 4.7643e-07
24 *720:6 *1050:B 1.79737e-06
25 *768:12 *777:18 1.30143e-05
26 *774:16 *777:18 0
27 *774:31 *777:18 0
28 *774:35 *1050:B 0
29 *774:35 *777:18 0
*RES
1 *1567:Y *777:6 20.9438 
2 *777:6 *777:12 40.8764 
3 *777:12 *777:16 29.3205 
4 *777:16 *777:18 68.4247 
5 *777:18 *1091:C 34.4 
6 *777:16 *1050:B 41.691 
7 *777:6 *1053:A1 17.2 
*END

*D_NET *779 0.000164187
*CONN
*I *1184:B I *D OR3x1_ASAP7_75t_R
*I *1119:A I *D XOR2x2_ASAP7_75t_R
*I *1147:B I *D AND2x2_ASAP7_75t_R
*I *1569:Y O *D BUFx3_ASAP7_75t_R
*CAP
1 *1184:B 1.26207e-05
2 *1119:A 2.27531e-05
3 *1147:B 0
4 *1569:Y 4.25797e-06
5 *779:15 6.79611e-05
6 *779:6 3.68452e-05
7 *1119:A *792:31 0
8 *1184:B *1143:B 0
9 *1184:B *792:31 0
10 *779:6 *1147:A 2.03526e-06
11 *779:6 *780:30 5.09299e-06
12 *779:6 *787:25 3.56648e-06
13 *779:15 *1147:A 4.41457e-06
14 *779:15 *780:30 2.12481e-06
15 *1119:B *1184:B 0
16 *346:12 *1184:B 8.3668e-07
17 *778:8 *1184:B 1.67815e-06
*RES
1 *1569:Y *779:6 20.9438 
2 *779:6 *1147:B 17.2 
3 *779:6 *779:15 36.9885 
4 *779:15 *1119:A 47.8556 
5 *779:15 *1184:B 43.4107 
*END

*D_NET *780 0.000225793
*CONN
*I *1098:B I *D XOR2x2_ASAP7_75t_R
*I *1118:A1 I *D OA21x2_ASAP7_75t_R
*I *1150:A1 I *D OA211x2_ASAP7_75t_R
*I *1570:Y O *D BUFx3_ASAP7_75t_R
*CAP
1 *1098:B 0
2 *1118:A1 1.21688e-05
3 *1150:A1 0
4 *1570:Y 0
5 *780:34 1.81618e-05
6 *780:30 5.02924e-05
7 *780:8 1.99478e-05
8 *780:4 3.99097e-05
9 *1118:A1 *781:10 5.49212e-07
10 *1118:A1 *781:27 0
11 *1118:A1 *787:25 1.07573e-06
12 *780:8 *781:10 1.67815e-06
13 *780:30 *787:25 2.03608e-06
14 *780:34 *1143:B 0
15 *192:42 *780:34 6.05751e-05
16 *257:38 *780:30 2.0895e-06
17 *320:27 *1118:A1 3.90551e-06
18 *320:27 *780:8 2.22736e-06
19 *329:12 *1118:A1 0
20 *329:18 *780:34 0
21 *333:8 *780:34 0
22 *337:8 *780:34 3.95845e-06
23 *779:6 *780:30 5.09299e-06
24 *779:15 *780:30 2.12481e-06
*RES
1 *1570:Y *780:4 17.2 
2 *780:4 *780:8 22.8317 
3 *780:8 *1150:A1 34.4 
4 *780:8 *1118:A1 43.2973 
5 *780:4 *780:30 31.6403 
6 *780:30 *780:34 37.474 
7 *780:34 *1098:B 17.2 
*END

*D_NET *782 0.000647199
*CONN
*I *1096:A1 I *D AO221x2_ASAP7_75t_R
*I *1095:A I *D AND2x2_ASAP7_75t_R
*I *1088:A1 I *D AO221x1_ASAP7_75t_R
*I *1087:A I *D AND3x1_ASAP7_75t_R
*I *1086:A I *D AND3x1_ASAP7_75t_R
*I *1572:Y O *D BUFx3_ASAP7_75t_R
*CAP
1 *1096:A1 8.27598e-06
2 *1095:A 1.05573e-05
3 *1088:A1 0
4 *1087:A 1.69027e-05
5 *1086:A 1.30461e-06
6 *1572:Y 1.11938e-05
7 *782:54 1.67664e-05
8 *782:48 2.86261e-05
9 *782:46 4.54651e-05
10 *782:42 4.15391e-05
11 *782:18 3.13025e-05
12 *782:16 2.37444e-05
13 *782:10 2.74954e-05
14 *1086:A *1086:B 2.55346e-06
15 *1087:A *1086:B 2.45021e-07
16 *1087:A *1087:B 4.59946e-06
17 *782:18 *1086:B 7.35063e-07
18 *782:46 *825:14 1.41582e-05
19 *782:46 *846:14 1.3988e-05
20 *1088:A2 *782:54 1.44167e-06
21 *190:17 *782:18 0
22 *283:20 *1096:A1 3.29635e-05
23 *283:20 *782:48 4.71862e-06
24 *283:20 *782:54 4.40961e-05
25 *289:32 *1096:A1 3.90258e-06
26 *290:10 *1087:A 9.43723e-06
27 *290:16 *1086:A 6.19506e-06
28 *290:18 *782:10 1.95634e-05
29 *290:18 *782:42 2.25312e-05
30 *295:10 *782:18 7.97373e-06
31 *295:14 *782:16 2.3392e-05
32 *295:23 *782:16 1.89933e-05
33 *297:8 *782:46 3.41589e-05
34 *298:14 *782:46 1.73901e-05
35 *299:10 *782:54 3.56177e-06
36 *768:25 *782:54 3.48165e-06
37 *772:10 *782:16 8.4825e-06
38 *772:10 *782:18 0
39 *772:10 *782:42 5.07932e-06
40 *772:23 *782:42 2.29213e-06
41 *777:18 *1096:A1 3.085e-05
42 *777:18 *782:48 3.14574e-06
43 *777:18 *782:54 4.40961e-05
*RES
1 *1572:Y *782:10 42.7625 
2 *782:10 *782:16 44.5617 
3 *782:16 *782:18 10.137 
4 *782:18 *1086:A 36.0045 
5 *782:18 *1087:A 46.0848 
6 *782:10 *782:42 25.0843 
7 *782:42 *782:46 46.6154 
8 *782:46 *782:48 1.6895 
9 *782:48 *782:54 37.2189 
10 *782:54 *1088:A1 17.2 
11 *782:48 *1095:A 42.4224 
12 *782:46 *1096:A1 46.733 
*END

*D_NET *783 0.000312775
*CONN
*I *1096:C I *D AO221x2_ASAP7_75t_R
*I *1089:A I *D XOR2x2_ASAP7_75t_R
*I *1573:Y O *D BUFx3_ASAP7_75t_R
*CAP
1 *1096:C 0
2 *1089:A 3.14727e-06
3 *1573:Y 4.22993e-06
4 *783:41 7.58113e-06
5 *783:33 4.0002e-05
6 *783:18 3.15732e-05
7 *783:10 7.95828e-05
8 *783:8 2.29659e-05
9 *783:33 *825:22 1.03694e-05
10 *1091:A *783:10 1.182e-05
11 *1096:B1 *783:33 2.30405e-06
12 *1096:B2 *783:33 5.82745e-07
13 *283:20 *783:18 1.11195e-05
14 *287:18 *783:18 4.74894e-06
15 *287:18 *783:33 0
16 *289:32 *783:33 0
17 *292:16 *783:10 0
18 *292:16 *783:33 0
19 *298:18 *783:10 2.6674e-05
20 *298:18 *783:33 3.49562e-05
21 *305:8 *783:41 3.05118e-08
22 *722:10 *783:10 2.19482e-06
23 *768:6 *783:8 1.01102e-06
24 *768:25 *783:18 9.97906e-07
25 *774:16 *783:10 4.73699e-06
26 *774:16 *783:33 4.27283e-06
27 *777:18 *783:41 7.87384e-06
*RES
1 *1573:Y *783:8 37.0741 
2 *783:8 *783:10 17.4581 
3 *783:10 *783:18 49.5735 
4 *783:18 *1089:A 36.0045 
5 *783:10 *783:33 40.4845 
6 *783:33 *783:41 38.8203 
7 *783:41 *1096:C 17.2 
*END

*D_NET *784 9.18466e-05
*CONN
*I *1087:B I *D AND3x1_ASAP7_75t_R
*I *1086:B I *D AND3x1_ASAP7_75t_R
*I *1574:Y O *D BUFx3_ASAP7_75t_R
*CAP
1 *1087:B 1.93409e-05
2 *1086:B 1.31383e-05
3 *1574:Y 0
4 *784:6 3.24791e-05
5 *1086:A *1086:B 2.55346e-06
6 *1087:A *1086:B 2.45021e-07
7 *1087:A *1087:B 4.59946e-06
8 *190:17 *1086:B 5.3483e-06
9 *190:17 *1087:B 6.40194e-06
10 *290:10 *1086:B 5.13209e-07
11 *290:10 *1087:B 6.46278e-06
12 *290:16 *1086:B 2.90209e-08
13 *782:18 *1086:B 7.35063e-07
*RES
1 *1574:Y *784:6 34.4 
2 *784:6 *1086:B 43.6904 
3 *784:6 *1087:B 48.5889 
*END

*D_NET *785 0.000163286
*CONN
*I *1094:A1 I *D AO21x1_ASAP7_75t_R
*I *1057:A1 I *D AO22x2_ASAP7_75t_R
*I *1056:A I *D AND2x2_ASAP7_75t_R
*I *1575:Y O *D BUFx3_ASAP7_75t_R
*CAP
1 *1094:A1 0
2 *1057:A1 1.03438e-05
3 *1056:A 0
4 *1575:Y 2.42549e-05
5 *785:22 2.30365e-05
6 *785:14 2.34879e-05
7 *785:10 3.50502e-05
8 *1057:A2 *1057:A1 3.16328e-06
9 *1057:B2 *1057:A1 9.52454e-06
10 *1094:A2 *785:14 4.17901e-06
11 *287:12 *785:22 2.63431e-05
12 *291:8 *785:10 3.61852e-06
13 *291:8 *785:22 0
14 *303:8 *785:22 2.83874e-07
*RES
1 *1575:Y *785:10 49.5168 
2 *785:10 *785:14 24.1527 
3 *785:14 *785:22 45.0151 
4 *785:22 *1056:A 17.2 
5 *785:22 *1057:A1 24.1527 
6 *785:14 *1094:A1 17.2 
*END

*D_NET *786 5.20428e-05
*CONN
*I *1040:A1 I *D OA21x2_ASAP7_75t_R
*I *1576:Y O *D BUFx3_ASAP7_75t_R
*CAP
1 *1040:A1 3.33844e-06
2 *1576:Y 1.78945e-05
3 *786:8 2.1233e-05
4 *179:10 *786:8 5.52807e-07
5 *675:8 *786:8 0
6 *692:17 *786:8 9.02409e-06
*RES
1 *1576:Y *786:8 46.2265 
2 *786:8 *1040:A1 35.4697 
*END

*D_NET *708 0.000449758
*CONN
*I *1622:A I *D BUFx12f_ASAP7_75t_R
*I *1216:B I *D AND2x2_ASAP7_75t_R
*I *1215:A I *D AND2x4_ASAP7_75t_R
*I *1120:Y O *D BUFx12f_ASAP7_75t_R
*CAP
1 *1622:A 2.91361e-06
2 *1216:B 2.88629e-06
3 *1215:A 1.82164e-05
4 *1120:Y 1.2719e-05
5 *708:42 2.2933e-05
6 *708:38 1.33779e-05
7 *708:26 0.000103618
8 *708:18 0.000121771
9 *708:8 4.53329e-05
10 *708:18 *709:42 0
11 *708:18 *832:10 0
12 *708:18 *832:93 0
13 *708:26 *709:30 4.99223e-05
14 *708:26 *789:24 1.29976e-05
15 *1333:B *1215:A 0
16 *1333:B *708:42 0
17 *1352:A *708:8 3.79494e-06
18 *1352:A *708:18 2.9732e-06
19 *1352:B *708:8 2.83874e-07
20 *1352:CI *708:8 6.62106e-06
21 *42:28 *708:26 2.93818e-05
22 *704:50 *708:42 1.49407e-08
*RES
1 *1120:Y *708:8 46.2265 
2 *708:8 *708:18 46.6959 
3 *708:18 *708:26 49.6499 
4 *708:26 *708:38 34.6311 
5 *708:38 *708:42 18.6079 
6 *708:42 *1215:A 45.1815 
7 *708:42 *1216:B 36.0045 
8 *708:8 *1622:A 35.4697 
*END

*D_NET *787 0.000311509
*CONN
*I *1147:A I *D AND2x2_ASAP7_75t_R
*I *1150:B I *D OA211x2_ASAP7_75t_R
*I *1182:A2 I *D OA21x2_ASAP7_75t_R
*I *1577:Y O *D BUFx3_ASAP7_75t_R
*CAP
1 *1147:A 7.1348e-06
2 *1150:B 4.90118e-06
3 *1182:A2 0
4 *1577:Y 2.20342e-05
5 *787:25 3.26488e-05
6 *787:19 3.48824e-05
7 *787:17 1.54059e-05
8 *787:6 3.74401e-05
9 *1118:A1 *787:25 1.07573e-06
10 *1154:B *787:6 3.87418e-05
11 *192:29 *787:17 1.89962e-06
12 *192:38 *787:6 5.40225e-06
13 *192:38 *787:17 3.68287e-06
14 *192:42 *787:17 4.53987e-05
15 *289:53 *787:17 6.6421e-06
16 *289:53 *787:25 0
17 *320:14 *787:6 6.26851e-06
18 *320:27 *787:25 0
19 *336:8 *787:25 2.19685e-06
20 *340:10 *787:6 5.09299e-06
21 *341:10 *787:17 0
22 *773:12 *787:6 5.25794e-06
23 *773:28 *787:6 3.89037e-06
24 *779:6 *1147:A 2.03526e-06
25 *779:6 *787:25 3.56648e-06
26 *779:15 *1147:A 4.41457e-06
27 *780:30 *787:25 2.03608e-06
28 *781:10 *1150:B 7.58265e-07
29 *781:10 *787:25 8.33296e-06
30 *781:27 *1150:B 2.03526e-06
31 *781:27 *787:25 8.33296e-06
*RES
1 *1577:Y *787:6 38.593 
2 *787:6 *1182:A2 17.2 
3 *787:6 *787:17 34.6015 
4 *787:17 *787:19 17.2 
5 *787:19 *787:25 37.612 
6 *787:25 *1150:B 37.609 
7 *787:19 *1147:A 22.0134 
*END

*D_NET *781 0.000111461
*CONN
*I *1118:B I *D OA21x2_ASAP7_75t_R
*I *1150:C I *D OA211x2_ASAP7_75t_R
*I *1571:Y O *D BUFx3_ASAP7_75t_R
*CAP
1 *1118:B 0
2 *1150:C 0
3 *1571:Y 2.21808e-05
4 *781:27 1.77822e-05
5 *781:12 1.77822e-05
6 *781:10 2.21808e-05
7 *781:10 *1150:B 7.58265e-07
8 *781:10 *787:25 8.33296e-06
9 *781:27 *1150:B 2.03526e-06
10 *781:27 *787:25 8.33296e-06
11 *1118:A1 *781:10 5.49212e-07
12 *1118:A1 *781:27 0
13 *1150:A2 *781:10 2.0895e-06
14 *289:53 *781:27 1.44925e-06
15 *314:8 *781:27 4.41094e-06
16 *317:27 *781:27 2.20179e-07
17 *320:27 *781:27 0
18 *329:12 *781:27 1.04475e-06
19 *336:8 *781:27 6.33206e-07
20 *780:8 *781:10 1.67815e-06
*RES
1 *1571:Y *781:10 46.3079 
2 *781:10 *781:12 17.2 
3 *781:12 *1150:C 17.2 
4 *781:12 *781:27 47.6893 
5 *781:27 *1118:B 17.2 
*END

*D_NET *788 5.69397e-05
*CONN
*I *1129:A1 I *D AOI21x1_ASAP7_75t_R
*I *1578:Y O *D BUFx3_ASAP7_75t_R
*CAP
1 *1129:A1 0
2 *1578:Y 2.49035e-05
3 *788:10 2.49035e-05
4 *1129:B *788:10 3.65663e-06
5 *322:10 *788:10 3.47607e-06
*RES
1 *1578:Y *788:10 47.3775 
2 *788:10 *1129:A1 34.4 
*END

*D_NET *778 6.20537e-05
*CONN
*I *1184:A I *D OR3x1_ASAP7_75t_R
*I *1151:A I *D OR4x1_ASAP7_75t_R
*I *1568:Y O *D BUFx3_ASAP7_75t_R
*CAP
1 *1184:A 2.13158e-06
2 *1151:A 4.17616e-06
3 *1568:Y 8.92912e-06
4 *778:10 6.30774e-06
5 *778:8 8.92912e-06
6 *1151:A *1184:C 1.85569e-05
7 *1184:A *1184:C 5.40225e-06
8 *778:8 *1143:B 0
9 *778:8 *1184:B 1.67815e-06
10 *778:8 *792:31 0
11 *314:12 *1151:A 4.86884e-06
12 *314:12 *1184:A 1.07377e-06
*RES
1 *1568:Y *778:8 40.0317 
2 *778:8 *778:10 17.2 
3 *778:10 *1151:A 22.5483 
4 *778:10 *1184:A 19.3393 
*END

*D_NET *773 0.000538341
*CONN
*I *1154:A1 I *D OA21x2_ASAP7_75t_R
*I *1578:A I *D BUFx3_ASAP7_75t_R
*I *1121:A I *D INVx1_ASAP7_75t_R
*I *1141:B I *D AO21x1_ASAP7_75t_R
*I *1568:A I *D BUFx3_ASAP7_75t_R
*I *1182:A1 I *D OA21x2_ASAP7_75t_R
*I *1563:Y O *D BUFx3_ASAP7_75t_R
*CAP
1 *1154:A1 0
2 *1578:A 0
3 *1121:A 0
4 *1141:B 0
5 *1568:A 0
6 *1182:A1 0
7 *1563:Y 2.27363e-06
8 *773:92 1.56473e-05
9 *773:79 3.57837e-06
10 *773:68 3.75957e-05
11 *773:60 5.49007e-05
12 *773:58 7.7696e-05
13 *773:49 4.16225e-06
14 *773:39 0.000109965
15 *773:28 4.11015e-06
16 *773:20 9.06323e-05
17 *773:12 5.95349e-05
18 *773:8 3.27671e-05
19 *773:12 *787:6 5.25794e-06
20 *773:28 *787:6 3.89037e-06
21 *773:49 *792:31 1.37303e-06
22 *1142:B1 *773:68 2.83874e-07
23 *1145:B *773:8 4.1009e-06
24 *1577:A *773:12 4.24961e-06
25 *1616:A *773:68 0
26 *307:14 *773:79 2.83874e-07
27 *316:8 *773:79 7.84037e-07
28 *316:8 *773:92 1.88253e-06
29 *317:12 *773:8 1.02072e-05
30 *320:14 *773:12 0
31 *320:52 *773:79 1.49407e-08
32 *320:52 *773:92 2.39567e-06
33 *327:18 *773:68 5.07619e-06
34 *340:10 *773:20 0
35 *766:10 *773:92 5.67735e-06
*RES
1 *1563:Y *773:8 37.779 
2 *773:8 *773:12 31.6403 
3 *773:12 *773:20 44.4942 
4 *773:20 *773:28 36.5021 
5 *773:28 *1182:A1 17.2 
6 *773:20 *773:39 32.9439 
7 *773:39 *773:49 48.2031 
8 *773:49 *1568:A 17.2 
9 *773:39 *773:58 36.8713 
10 *773:58 *773:60 4.16643 
11 *773:60 *773:68 47.0207 
12 *773:68 *1141:B 17.2 
13 *773:60 *773:79 36.3711 
14 *773:79 *1121:A 17.2 
15 *773:58 *773:92 46.5401 
16 *773:92 *1578:A 17.2 
17 *773:12 *1154:A1 17.2 
*END

*D_NET *790 0.000349737
*CONN
*I *1140:A1 I *D OA211x2_ASAP7_75t_R
*I *1117:C I *D OA211x2_ASAP7_75t_R
*I *1092:B I *D OA21x2_ASAP7_75t_R
*I *1580:Y O *D BUFx3_ASAP7_75t_R
*CAP
1 *1140:A1 3.42006e-06
2 *1117:C 0
3 *1092:B 6.01101e-06
4 *1580:Y 1.50954e-05
5 *790:40 3.35284e-05
6 *790:29 4.54233e-05
7 *790:10 3.0013e-05
8 *790:6 5.44123e-05
9 *1092:A2 *1092:B 3.89037e-06
10 *1117:B *790:29 2.28802e-06
11 *1117:B *790:40 2.12481e-06
12 *1142:B1 *790:10 0
13 *1142:B2 *1140:A1 9.30483e-06
14 *192:42 *790:40 8.57828e-06
15 *289:53 *790:40 2.71662e-05
16 *291:26 *790:10 0
17 *291:42 *790:10 7.53871e-06
18 *291:42 *790:29 7.84037e-07
19 *308:10 *790:10 5.6114e-05
20 *312:14 *790:6 0
21 *312:14 *790:29 0
22 *320:27 *790:29 8.33296e-06
23 *326:8 *790:10 5.79724e-07
24 *327:10 *1140:A1 2.03526e-06
25 *327:10 *790:40 4.84072e-06
26 *329:8 *790:10 2.71272e-05
27 *329:8 *790:29 1.12894e-06
28 *764:8 *790:10 0
*RES
1 *1580:Y *790:6 24.1527 
2 *790:6 *790:10 45.3583 
3 *790:10 *1092:B 38.1438 
4 *790:6 *790:29 43.6337 
5 *790:29 *1117:C 17.2 
6 *790:29 *790:40 40.6509 
7 *790:40 *1140:A1 37.0741 
*END

*D_NET *792 0.000437458
*CONN
*I *1155:B2 I *D OA221x2_ASAP7_75t_R
*I *1183:A1 I *D OA21x2_ASAP7_75t_R
*I *1143:B I *D XOR2x2_ASAP7_75t_R
*I *1184:C I *D OR3x1_ASAP7_75t_R
*I *1151:B I *D OR4x1_ASAP7_75t_R
*I *1153:A2 I *D OA211x2_ASAP7_75t_R
*I *1582:Y O *D BUFx3_ASAP7_75t_R
*CAP
1 *1155:B2 6.16594e-06
2 *1183:A1 2.53939e-06
3 *1143:B 1.19781e-05
4 *1184:C 1.67404e-05
5 *1151:B 0
6 *1153:A2 0
7 *1582:Y 1.50641e-05
8 *792:35 2.00685e-05
9 *792:31 5.06807e-05
10 *792:27 5.71767e-05
11 *792:25 3.57727e-05
12 *792:12 3.31112e-05
13 *792:8 3.78314e-05
14 *792:31 *1157:B2 1.12055e-06
15 *792:31 *793:10 1.49407e-08
16 *1119:A *792:31 0
17 *1151:A *1184:C 1.85569e-05
18 *1153:A1 *792:12 6.7842e-07
19 *1153:A1 *792:25 5.09299e-06
20 *1155:A2 *1155:B2 2.12481e-06
21 *1183:A2 *1183:A1 2.12481e-06
22 *1183:A2 *792:27 5.85624e-06
23 *1184:A *1184:C 5.40225e-06
24 *1184:B *1143:B 0
25 *1184:B *792:31 0
26 *176:14 *1155:B2 6.7842e-07
27 *176:14 *792:8 0
28 *176:14 *792:12 5.25278e-06
29 *176:21 *792:12 5.25278e-06
30 *177:8 *792:8 0
31 *192:16 *792:25 1.12894e-06
32 *192:29 *792:25 2.25787e-06
33 *192:42 *792:31 0
34 *314:12 *1184:C 1.78333e-06
35 *314:12 *792:35 2.66797e-07
36 *330:8 *1155:B2 0
37 *330:8 *792:8 0
38 *333:8 *1143:B 1.03306e-05
39 *333:8 *792:31 1.34329e-05
40 *337:8 *792:31 0
41 *338:8 *792:25 5.79724e-07
42 *339:8 *792:25 0
43 *339:8 *792:31 1.0532e-05
44 *341:6 *792:12 4.09005e-05
45 *342:14 *792:31 1.50385e-05
46 *730:14 *792:27 0
47 *761:10 *1155:B2 5.49212e-07
48 *773:49 *792:31 1.37303e-06
49 *778:8 *1143:B 0
50 *778:8 *792:31 0
51 *780:34 *1143:B 0
*RES
1 *1582:Y *792:8 44.537 
2 *792:8 *792:12 35.9189 
3 *792:12 *1153:A2 17.2 
4 *792:12 *792:25 46.0281 
5 *792:25 *792:27 9.09202 
6 *792:27 *792:31 44.232 
7 *792:31 *792:35 18.8045 
8 *792:35 *1151:B 17.2 
9 *792:35 *1184:C 28.9662 
10 *792:31 *1143:B 44.537 
11 *792:27 *1183:A1 18.8045 
12 *792:8 *1155:B2 41.9726 
*END

*D_NET *793 0.000165847
*CONN
*I *1157:B2 I *D AO32x1_ASAP7_75t_R
*I *1185:B I *D AO21x1_ASAP7_75t_R
*I *1583:Y O *D BUFx3_ASAP7_75t_R
*CAP
1 *1157:B2 1.70246e-05
2 *1185:B 6.19264e-06
3 *1583:Y 1.97518e-05
4 *793:16 3.64024e-05
5 *793:10 6.69861e-05
6 *1183:A2 *793:16 6.7842e-07
7 *1538:A *1157:B2 1.67815e-06
8 *1553:A *1185:B 2.20493e-06
9 *1553:A *793:16 1.51653e-06
10 *176:32 *1157:B2 3.16603e-06
11 *176:32 *793:10 5.37569e-06
12 *338:8 *793:10 0
13 *339:8 *793:10 0
14 *342:14 *1157:B2 1.67815e-06
15 *345:6 *793:16 1.01102e-06
16 *346:12 *1157:B2 0
17 *346:12 *793:16 1.04475e-06
18 *730:14 *793:16 0
19 *792:31 *1157:B2 1.12055e-06
20 *792:31 *793:10 1.49407e-08
*RES
1 *1583:Y *793:10 47.831 
2 *793:10 *793:16 48.8403 
3 *793:16 *1185:B 38.8203 
4 *793:10 *1157:B2 46.7897 
*END

*D_NET *794 8.12218e-05
*CONN
*I *882:B I *D AND2x2_ASAP7_75t_R
*I *1007:A I *D AND2x2_ASAP7_75t_R
*I *1584:Y O *D BUFx3_ASAP7_75t_R
*CAP
1 *882:B 0
2 *1007:A 1.14661e-05
3 *1584:Y 0
4 *794:21 2.61897e-05
5 *794:6 3.76558e-05
6 *1007:A *818:48 3.68287e-06
7 *1595:A *794:21 2.22736e-06
8 *211:12 *794:21 0
9 *707:20 *1007:A 0
10 *707:20 *794:21 0
*RES
1 *1584:Y *794:6 34.4 
2 *794:6 *1007:A 41.4377 
3 *794:6 *794:21 37.474 
4 *794:21 *882:B 17.2 
*END

*D_NET *789 0.000738102
*CONN
*I *1241:A I *D AND2x2_ASAP7_75t_R
*I *1217:A I *D AND2x2_ASAP7_75t_R
*I *1579:Y O *D BUFx3_ASAP7_75t_R
*CAP
1 *1241:A 0
2 *1217:A 0
3 *1579:Y 1.06019e-05
4 *789:59 5.0665e-05
5 *789:44 6.9389e-06
6 *789:32 6.60541e-05
7 *789:24 5.06031e-05
8 *789:20 5.02945e-05
9 *789:8 1.87436e-05
10 *789:8 *832:93 1.70708e-06
11 *789:44 *832:33 3.67907e-06
12 *789:59 *832:37 2.65244e-06
13 *789:59 *832:84 2.77387e-08
14 *42:28 *789:24 5.90669e-05
15 *385:10 *789:8 1.67815e-06
16 *696:43 *789:20 0
17 *703:99 *789:20 0
18 *706:16 *789:32 2.72046e-07
19 *706:16 *789:59 2.19947e-05
20 *706:26 *789:24 5.70025e-05
21 *708:26 *789:24 1.29976e-05
22 *709:16 *789:32 9.25304e-06
23 *709:16 *789:59 2.98252e-05
24 *709:30 *789:24 0.000284045
25 *709:44 *789:8 0
26 *711:51 *789:8 0
*RES
1 *1579:Y *789:8 42.3782 
2 *789:8 *789:20 42.9701 
3 *789:20 *789:24 43.0264 
4 *789:24 *789:32 22.4033 
5 *789:32 *789:44 49.1646 
6 *789:44 *1217:A 17.2 
7 *789:32 *789:59 48.4864 
8 *789:59 *1241:A 34.4 
*END

*D_NET *709 0.000990632
*CONN
*I *1607:A I *D BUFx3_ASAP7_75t_R
*I *1197:B I *D AND2x2_ASAP7_75t_R
*I *1282:A I *D AND2x2_ASAP7_75t_R
*I *1195:A I *D AND2x4_ASAP7_75t_R
*I *1196:B I *D AND2x2_ASAP7_75t_R
*I *1194:B I *D AND2x2_ASAP7_75t_R
*I *1010:Y O *D BUFx12f_ASAP7_75t_R
*CAP
1 *1607:A 1.03802e-05
2 *1197:B 0
3 *1282:A 1.43724e-06
4 *1195:A 9.14213e-06
5 *1196:B 2.91361e-06
6 *1194:B 1.52185e-05
7 *1010:Y 0
8 *709:96 6.01822e-06
9 *709:46 2.64317e-05
10 *709:44 6.32326e-05
11 *709:42 5.49298e-05
12 *709:30 7.58603e-05
13 *709:24 7.6247e-05
14 *709:16 7.49385e-05
15 *709:14 6.43578e-05
16 *709:6 1.39061e-05
17 *1607:A *817:14 0
18 *709:16 *789:32 9.25304e-06
19 *709:16 *789:59 2.98252e-05
20 *709:16 *832:37 1.6924e-05
21 *709:16 *834:31 1.50432e-05
22 *709:30 *789:24 0.000284045
23 *709:42 *832:93 0
24 *709:44 *789:8 0
25 *709:44 *832:93 0
26 *709:96 *832:10 7.47402e-07
27 *709:96 *832:18 1.36155e-06
28 *921:A *1282:A 3.68287e-06
29 *1273:B *709:44 5.52807e-07
30 *1333:A *709:46 1.88253e-06
31 *1333:B *1194:B 2.71199e-05
32 *1333:B *1195:A 2.03526e-06
33 *1333:B *709:46 1.66587e-05
34 *1338:A *1607:A 1.04475e-06
35 *41:10 *709:44 0
36 *78:20 *709:24 0
37 *384:8 *1195:A 2.74224e-05
38 *696:43 *709:30 0
39 *699:10 *709:96 1.81898e-06
40 *699:20 *709:16 6.02235e-07
41 *699:20 *709:24 8.59161e-07
42 *703:128 *709:44 4.03399e-07
43 *705:79 *1194:B 4.41457e-06
44 *708:18 *709:42 0
45 *708:26 *709:30 4.99223e-05
*RES
1 *1010:Y *709:6 34.4 
2 *709:6 *709:14 30.2522 
3 *709:14 *709:16 27.8063 
4 *709:16 *709:24 22.2132 
5 *709:24 *709:30 39.7506 
6 *709:30 *709:42 43.7042 
7 *709:42 *709:44 33.2268 
8 *709:44 *709:46 7.88432 
9 *709:46 *1194:B 46.6196 
10 *709:46 *1196:B 35.4697 
11 *709:44 *1195:A 42.4224 
12 *709:42 *1282:A 35.4697 
13 *709:16 *709:96 49.085 
14 *709:96 *1197:B 17.2 
15 *709:6 *1607:A 40.5098 
*END

*D_NET *796 0.0002375
*CONN
*I *1242:A I *D AND2x4_ASAP7_75t_R
*I *1218:A I *D AND2x2_ASAP7_75t_R
*I *1197:A I *D AND2x2_ASAP7_75t_R
*I *1586:Y O *D BUFx6f_ASAP7_75t_R
*CAP
1 *1242:A 0
2 *1218:A 8.74748e-06
3 *1197:A 7.90026e-06
4 *1586:Y 9.89363e-06
5 *796:34 3.30046e-05
6 *796:19 6.42491e-05
7 *796:8 4.02909e-05
8 *1218:A *1241:B 6.07405e-06
9 *796:8 *832:10 0
10 *796:19 *832:10 0
11 *796:19 *832:33 0
12 *796:19 *832:84 1.60621e-05
13 *796:19 *834:76 8.35336e-06
14 *796:34 *798:27 0
15 *796:34 *834:10 0
16 *796:34 *834:76 2.96994e-05
17 *1624:A *796:19 0
18 *369:10 *796:34 0
19 *393:8 *796:19 1.3225e-05
*RES
1 *1586:Y *796:8 41.158 
2 *796:8 *1197:A 38.6786 
3 *796:8 *796:19 18.5845 
4 *796:19 *1218:A 39.2134 
5 *796:19 *796:34 38.1752 
6 *796:34 *1242:A 17.2 
*END

*D_NET *795 0.000112642
*CONN
*I *1006:A I *D AND2x2_ASAP7_75t_R
*I *881:B I *D AND2x2_ASAP7_75t_R
*I *1585:Y O *D BUFx3_ASAP7_75t_R
*CAP
1 *1006:A 2.21032e-05
2 *881:B 0
3 *1585:Y 8.59206e-06
4 *795:14 3.79967e-05
5 *795:10 2.44856e-05
6 *881:A *1006:A 1.44167e-06
7 *454:6 *795:10 0
8 *454:6 *795:14 1.43369e-05
9 *509:8 *795:10 0
10 *707:32 *1006:A 5.22376e-07
11 *707:36 *1006:A 3.16328e-06
*RES
1 *1585:Y *795:10 39.9466 
2 *795:10 *795:14 30.0358 
3 *795:14 *881:B 17.2 
4 *795:14 *1006:A 30.5706 
*END

*D_NET *798 0.000415486
*CONN
*I *1243:A I *D AND2x2_ASAP7_75t_R
*I *1222:B I *D AND2x4_ASAP7_75t_R
*I *1198:A I *D AND2x2_ASAP7_75t_R
*I *1179:A I *D AND2x2_ASAP7_75t_R
*I *1588:Y O *D BUFx6f_ASAP7_75t_R
*CAP
1 *1243:A 2.00616e-06
2 *1222:B 0
3 *1198:A 1.68604e-06
4 *1179:A 2.24491e-06
5 *1588:Y 0
6 *798:71 2.70697e-05
7 *798:54 2.74797e-05
8 *798:46 9.64235e-05
9 *798:27 6.29548e-05
10 *798:23 5.65106e-05
11 *798:8 6.13248e-05
12 *798:6 1.99579e-05
13 *798:54 *832:45 3.06692e-06
14 *798:71 *802:8 0
15 *798:71 *817:46 2.83874e-07
16 *798:71 *834:61 0
17 *1179:B *798:23 4.06202e-06
18 *1336:B *798:27 3.90551e-06
19 *1337:CI *798:46 0
20 *30:8 *798:8 1.01908e-05
21 *49:10 *798:71 6.72662e-07
22 *369:10 *798:27 0
23 *369:10 *798:46 0
24 *369:16 *1198:A 1.44167e-06
25 *392:8 *798:27 5.97901e-06
26 *697:18 *798:54 0
27 *710:44 *798:8 2.6696e-05
28 *710:44 *798:23 1.5292e-06
29 *796:34 *798:27 0
*RES
1 *1588:Y *798:6 34.4 
2 *798:6 *798:8 21.4003 
3 *798:8 *1179:A 35.4697 
4 *798:8 *798:23 36.6521 
5 *798:23 *798:27 31.2792 
6 *798:27 *1198:A 35.4697 
7 *798:27 *798:46 48.5928 
8 *798:46 *798:54 43.3467 
9 *798:54 *1222:B 34.4 
10 *798:46 *798:71 39.1319 
11 *798:71 *1243:A 35.4697 
*END

*D_NET *797 3.06816e-05
*CONN
*I *1629:A I *D BUFx3_ASAP7_75t_R
*I *1024:A I *D AND2x4_ASAP7_75t_R
*I *1587:Y O *D BUFx6f_ASAP7_75t_R
*CAP
1 *1629:A 5.01913e-06
2 *1024:A 0
3 *1587:Y 0
4 *797:10 8.17859e-06
5 *797:4 1.31977e-05
6 *567:10 *797:10 2.05883e-06
7 *791:8 *797:10 2.22736e-06
*RES
1 *1587:Y *797:4 17.2 
2 *797:4 *797:10 40.0317 
3 *797:10 *1024:A 17.2 
4 *797:4 *1629:A 19.8741 
*END

*D_NET *800 0.000204966
*CONN
*I *1244:B I *D AND2x4_ASAP7_75t_R
*I *1590:Y O *D BUFx6f_ASAP7_75t_R
*CAP
1 *1244:B 0
2 *1590:Y 2.75447e-05
3 *800:14 3.81447e-05
4 *800:8 6.56894e-05
5 *800:14 *1225:B 1.95129e-06
6 *800:14 *810:8 9.66208e-06
7 *800:14 *810:16 2.33656e-06
8 *800:14 *819:46 3.01482e-05
9 *800:14 *849:6 4.20803e-06
10 *800:14 *849:10 0
11 *800:14 *851:14 1.4845e-05
12 *800:14 *851:18 0
13 *367:6 *800:14 8.99409e-06
14 *799:73 *800:8 1.44167e-06
*RES
1 *1590:Y *800:8 45.6313 
2 *800:8 *800:14 48.9851 
3 *800:14 *1244:B 17.2 
*END

*D_NET *799 0.00100709
*CONN
*I *925:A I *D AND2x4_ASAP7_75t_R
*I *1590:A I *D BUFx6f_ASAP7_75t_R
*I *1180:A I *D AND2x2_ASAP7_75t_R
*I *1292:A I *D AND2x4_ASAP7_75t_R
*I *1223:A I *D AND2x2_ASAP7_75t_R
*I *1589:Y O *D BUFx6f_ASAP7_75t_R
*CAP
1 *925:A 0
2 *1590:A 0
3 *1180:A 1.95301e-05
4 *1292:A 0
5 *1223:A 7.40712e-06
6 *1589:Y 0
7 *799:73 3.27103e-06
8 *799:65 4.20617e-05
9 *799:50 8.42198e-05
10 *799:34 5.88863e-05
11 *799:28 5.66818e-05
12 *799:22 4.72782e-05
13 *799:18 8.39817e-05
14 *799:12 2.54292e-05
15 *799:8 5.76954e-05
16 *799:6 4.82733e-05
17 *1180:A *1180:B 5.47029e-06
18 *1223:A *1223:B 5.34278e-06
19 *1223:A *832:58 3.26065e-06
20 *799:8 *813:8 0
21 *799:8 *813:29 1.49407e-08
22 *799:18 *802:8 5.51814e-06
23 *799:18 *813:27 2.55346e-06
24 *799:18 *813:29 6.70758e-05
25 *799:34 *832:45 0
26 *799:50 *802:8 2.80468e-05
27 *799:50 *802:21 0
28 *799:50 *804:10 0
29 *799:50 *813:29 8.44061e-05
30 *799:65 *813:56 0
31 *799:65 *834:61 1.24018e-05
32 *799:65 *848:23 0
33 *799:65 *852:18 1.49606e-07
34 *799:73 *800:8 1.44167e-06
35 *799:73 *819:8 2.22144e-06
36 *1078:A *1180:A 2.12481e-06
37 *1337:CI *799:28 1.87869e-05
38 *1338:A *799:22 2.85951e-06
39 *1338:A *799:34 8.37434e-05
40 *1354:CI *799:8 1.94459e-05
41 *1602:A *799:8 3.14815e-06
42 *47:14 *799:22 1.73899e-05
43 *47:14 *799:28 1.67815e-06
44 *50:6 *799:50 1.5862e-06
45 *81:8 *799:8 1.43255e-05
46 *114:6 *799:8 0
47 *357:10 *1180:A 1.56713e-06
48 *379:8 *799:34 1.02072e-05
49 *402:10 *799:50 3.26873e-05
50 *402:14 *799:65 2.12019e-06
51 *699:110 *799:18 4.19041e-05
52 *710:143 *799:65 0
53 *711:85 *799:8 8.9577e-07
54 *712:109 *799:8 0
55 *717:10 *799:34 0
*RES
1 *1589:Y *799:6 34.4 
2 *799:6 *799:8 40.548 
3 *799:8 *799:12 22.0134 
4 *799:12 *799:18 41.3311 
5 *799:18 *799:22 38.0582 
6 *799:22 *799:28 40.5948 
7 *799:28 *799:34 47.9684 
8 *799:34 *1223:A 40.2831 
9 *799:22 *1292:A 17.2 
10 *799:18 *799:50 36.6058 
11 *799:50 *1180:A 47.2358 
12 *799:50 *799:65 35.8214 
13 *799:65 *799:73 37.0653 
14 *799:73 *1590:A 17.2 
15 *799:12 *925:A 17.2 
*END

*D_NET *791 0.000128067
*CONN
*I *1631:A I *D BUFx3_ASAP7_75t_R
*I *1233:A I *D AND2x4_ASAP7_75t_R
*I *1581:Y O *D BUFx6f_ASAP7_75t_R
*CAP
1 *1631:A 2.03929e-05
2 *1233:A 6.78237e-06
3 *1581:Y 0
4 *791:8 5.91787e-05
5 *791:6 3.20035e-05
6 *1233:A *807:22 6.7842e-07
7 *791:8 *797:10 2.22736e-06
8 *791:8 *807:22 2.25196e-06
9 *791:8 *809:8 0
10 *1235:A *1631:A 0
11 *1320:A *1631:A 0
12 *14:8 *1631:A 8.2174e-07
13 *15:10 *1631:A 3.73039e-06
14 *473:8 *1631:A 0
15 *473:8 *791:8 0
16 *484:8 *1631:A 0
17 *567:10 *791:8 0
*RES
1 *1581:Y *791:6 34.4 
2 *791:6 *791:8 23.653 
3 *791:8 *1233:A 38.1438 
4 *791:8 *1631:A 49.6055 
*END

*D_NET *802 0.000540556
*CONN
*I *923:A I *D AND2x2_ASAP7_75t_R
*I *1181:B I *D AND2x4_ASAP7_75t_R
*I *1245:A I *D AND2x4_ASAP7_75t_R
*I *1224:B I *D AND2x4_ASAP7_75t_R
*I *1199:A I *D AND2x4_ASAP7_75t_R
*I *1592:Y O *D BUFx4f_ASAP7_75t_R
*CAP
1 *923:A 3.47254e-06
2 *1181:B 0
3 *1245:A 1.11946e-05
4 *1224:B 1.41866e-06
5 *1199:A 0
6 *1592:Y 0
7 *802:48 2.95557e-05
8 *802:29 3.0266e-05
9 *802:27 4.42723e-05
10 *802:23 3.3786e-05
11 *802:21 3.70945e-05
12 *802:17 6.01757e-05
13 *802:10 1.96086e-05
14 *802:8 3.71322e-05
15 *802:6 3.71322e-05
16 *923:A *813:46 3.68287e-06
17 *802:17 *813:33 2.89992e-05
18 *802:17 *813:46 6.92634e-06
19 *802:21 *1180:B 3.32579e-06
20 *802:21 *812:38 0
21 *802:21 *813:46 1.83103e-05
22 *802:21 *816:29 2.45681e-06
23 *802:21 *816:40 2.68933e-07
24 *802:21 *827:41 5.67747e-07
25 *802:21 *852:8 0
26 *802:27 *1593:A 5.19475e-06
27 *802:27 *803:12 3.70102e-05
28 *802:27 *803:14 1.23408e-05
29 *802:29 *803:30 3.3563e-06
30 *802:29 *810:37 3.47607e-06
31 *802:48 *810:31 1.01102e-06
32 *802:48 *810:37 4.7341e-06
33 *49:10 *802:8 0
34 *50:6 *802:21 0
35 *366:12 *802:48 6.33206e-07
36 *367:6 *802:27 8.82914e-06
37 *377:8 *802:29 0
38 *377:8 *802:48 8.06799e-07
39 *402:10 *802:8 1.99518e-05
40 *798:71 *802:8 0
41 *799:18 *802:8 5.51814e-06
42 *799:50 *802:8 2.80468e-05
43 *799:50 *802:21 0
*RES
1 *1592:Y *802:6 34.4 
2 *802:6 *802:8 33.2268 
3 *802:8 *802:10 17.2 
4 *802:10 *1199:A 17.2 
5 *802:10 *802:17 13.3706 
6 *802:17 *802:21 43.1056 
7 *802:21 *802:23 17.2 
8 *802:23 *802:27 44.4761 
9 *802:27 *802:29 7.88432 
10 *802:29 *1224:B 35.4697 
11 *802:29 *802:48 46.5346 
12 *802:48 *1245:A 39.2134 
13 *802:23 *1181:B 17.2 
14 *802:17 *923:A 19.3393 
*END

*D_NET *801 6.75734e-05
*CONN
*I *1632:A I *D BUFx3_ASAP7_75t_R
*I *1302:A I *D AND2x4_ASAP7_75t_R
*I *1591:Y O *D BUFx6f_ASAP7_75t_R
*CAP
1 *1632:A 6.02438e-06
2 *1302:A 0
3 *1591:Y 0
4 *801:12 2.5431e-05
5 *801:6 3.14553e-05
6 *1632:A *842:8 0
7 *1632:A *842:14 0
8 *801:12 *842:14 0
9 *1158:A *1632:A 0
10 *1158:A *801:12 0
11 *495:8 *801:12 7.72307e-07
12 *715:171 *801:12 3.89037e-06
*RES
1 *1591:Y *801:6 34.4 
2 *801:6 *801:12 34.2897 
3 *801:12 *1302:A 17.2 
4 *801:6 *1632:A 38.9053 
*END

*D_NET *803 0.000231125
*CONN
*I *1200:B I *D AND2x4_ASAP7_75t_R
*I *1639:A I *D BUFx3_ASAP7_75t_R
*I *1225:A I *D AND2x4_ASAP7_75t_R
*I *1593:Y O *D BUFx6f_ASAP7_75t_R
*CAP
1 *1200:B 1.68604e-06
2 *1639:A 0
3 *1225:A 7.61537e-06
4 *1593:Y 2.15333e-06
5 *803:30 3.58279e-05
6 *803:14 1.12526e-05
7 *803:12 4.99448e-05
8 *803:8 1.43191e-05
9 *1200:B *817:88 1.44167e-06
10 *1225:A *849:6 1.90814e-05
11 *803:8 *813:64 7.13409e-06
12 *803:14 *849:6 6.10603e-06
13 *803:30 *827:18 3.23425e-06
14 *1339:CI *803:30 3.4722e-06
15 *366:12 *803:30 0
16 *367:6 *1225:A 1.30594e-05
17 *367:6 *803:14 2.0895e-06
18 *389:8 *803:30 0
19 *802:27 *803:12 3.70102e-05
20 *802:27 *803:14 1.23408e-05
21 *802:29 *803:30 3.3563e-06
*RES
1 *1593:Y *803:8 37.2158 
2 *803:8 *803:12 28.4313 
3 *803:12 *803:14 5.88308 
4 *803:14 *1225:A 30.5706 
5 *803:14 *1639:A 17.2 
6 *803:12 *803:30 41.9793 
7 *803:30 *1200:B 35.4697 
*END

*D_NET *710 0.0012964
*CONN
*I *1606:A I *D BUFx3_ASAP7_75t_R
*I *1179:B I *D AND2x2_ASAP7_75t_R
*I *1178:B I *D AND2x2_ASAP7_75t_R
*I *1177:B I *D AND2x4_ASAP7_75t_R
*I *1175:B I *D AND2x2_ASAP7_75t_R
*I *1605:A I *D BUFx3_ASAP7_75t_R
*I *968:Y O *D BUFx6f_ASAP7_75t_R
*CAP
1 *1606:A 0
2 *1179:B 2.98354e-06
3 *1178:B 0
4 *1177:B 0
5 *1175:B 0
6 *1605:A 0
7 *968:Y 8.81959e-06
8 *710:149 2.00788e-06
9 *710:143 1.02447e-05
10 *710:101 4.10181e-05
11 *710:90 6.01248e-05
12 *710:84 2.74654e-05
13 *710:74 4.67535e-05
14 *710:66 4.37425e-05
15 *710:56 1.10622e-05
16 *710:48 2.73786e-05
17 *710:44 6.17826e-05
18 *710:42 6.18884e-05
19 *710:34 0.000108739
20 *710:26 0.000130928
21 *710:18 6.19876e-05
22 *710:8 3.80682e-05
23 *1179:B *798:23 4.06202e-06
24 *710:26 *817:70 1.79565e-05
25 *710:34 *817:70 1.61363e-05
26 *710:44 *712:94 6.33206e-07
27 *710:44 *798:8 2.6696e-05
28 *710:44 *798:23 1.5292e-06
29 *710:48 *711:74 3.46317e-06
30 *710:56 *711:64 3.75295e-06
31 *710:56 *711:66 4.42444e-07
32 *710:66 *715:20 1.12968e-06
33 *710:84 *711:51 5.98744e-07
34 *710:90 *711:10 1.15945e-06
35 *710:90 *711:51 8.90818e-07
36 *710:101 *711:25 2.98814e-06
37 *710:101 *815:8 8.71771e-06
38 *710:143 *799:65 0
39 *710:143 *852:28 2.16343e-06
40 *710:149 *804:23 2.24049e-06
41 *927:A *710:48 7.35354e-06
42 *1326:A *710:101 6.31056e-06
43 *1340:A *710:8 1.02506e-06
44 *30:8 *710:44 7.00626e-06
45 *42:10 *710:101 0
46 *43:8 *710:101 3.58577e-07
47 *78:20 *710:66 8.68161e-06
48 *366:12 *710:18 6.99297e-06
49 *370:8 *1179:B 3.99162e-07
50 *370:8 *710:44 4.6759e-06
51 *371:8 *710:101 2.45028e-06
52 *371:24 *710:74 6.27186e-05
53 *372:8 *710:101 0
54 *377:8 *710:18 7.29232e-06
55 *385:10 *710:90 0
56 *427:10 *710:44 2.02257e-05
57 *427:10 *710:48 8.23084e-06
58 *438:8 *710:44 1.9715e-06
59 *696:43 *710:74 9.31124e-06
60 *701:118 *710:44 8.6539e-06
61 *702:86 *710:56 2.90439e-06
62 *702:96 *710:48 5.41446e-06
63 *703:78 *710:101 0
64 *703:99 *710:84 5.22379e-06
65 *703:99 *710:90 8.53502e-07
66 *705:67 *710:101 1.95276e-06
67 *706:26 *710:74 0.000276842
68 *706:71 *710:101 0
*RES
1 *968:Y *710:8 38.1438 
2 *710:8 *710:18 47.8522 
3 *710:18 *710:26 30.7348 
4 *710:26 *710:34 46.6375 
5 *710:34 *710:42 34.8352 
6 *710:42 *710:44 42.3313 
7 *710:44 *710:48 32.7099 
8 *710:48 *710:56 39.0599 
9 *710:56 *710:66 33.3866 
10 *710:66 *710:74 49.3244 
11 *710:74 *710:84 32.4753 
12 *710:84 *710:90 28.8281 
13 *710:90 *1605:A 17.2 
14 *710:90 *710:101 48.932 
15 *710:101 *1175:B 34.4 
16 *710:84 *1177:B 34.4 
17 *710:48 *1178:B 17.2 
18 *710:42 *1179:B 36.5021 
19 *710:26 *710:143 34.2891 
20 *710:143 *710:149 36.3711 
21 *710:149 *1606:A 17.2 
*END

*D_NET *770 0.000133345
*CONN
*I *877:B I *D AND2x2_ASAP7_75t_R
*I *971:A I *D AND2x2_ASAP7_75t_R
*I *1560:Y O *D BUFx3_ASAP7_75t_R
*CAP
1 *877:B 0
2 *971:A 0
3 *1560:Y 1.22262e-05
4 *770:22 1.13842e-05
5 *770:14 2.14909e-05
6 *770:10 2.23329e-05
7 *770:22 *833:60 2.29108e-05
8 *1313:A *770:14 1.09269e-05
9 *1349:A *770:10 1.59676e-05
10 *1392:A *770:14 7.94909e-06
11 *159:14 *770:22 8.15645e-06
*RES
1 *1560:Y *770:10 42.7058 
2 *770:10 *770:14 25.2224 
3 *770:14 *770:22 44.4236 
4 *770:22 *971:A 17.2 
5 *770:14 *877:B 17.2 
*END

*D_NET *827 0.000689519
*CONN
*I *1640:A I *D BUFx3_ASAP7_75t_R
*I *1013:A I *D AND2x2_ASAP7_75t_R
*I *1190:A I *D AND2x2_ASAP7_75t_R
*I *913:B I *D AND2x4_ASAP7_75t_R
*I *939:A I *D AND2x2_ASAP7_75t_R
*I *1593:A I *D BUFx6f_ASAP7_75t_R
*I *1617:Y O *D BUFx12f_ASAP7_75t_R
*CAP
1 *1640:A 0
2 *1013:A 0
3 *1190:A 6.32311e-07
4 *913:B 0
5 *939:A 1.35845e-05
6 *1593:A 8.50575e-07
7 *1617:Y 0
8 *827:76 2.31481e-05
9 *827:70 6.4205e-05
10 *827:68 6.83596e-05
11 *827:41 5.32319e-05
12 *827:35 6.44066e-05
13 *827:29 2.53915e-05
14 *827:18 5.46786e-05
15 *827:12 0.000102213
16 *827:10 5.08475e-05
17 *827:4 2.97656e-05
18 *827:12 *836:52 0
19 *827:18 *848:23 0
20 *827:35 *836:52 0
21 *827:35 *836:60 0
22 *827:76 *828:36 0
23 *827:76 *850:8 1.10561e-06
24 *913:A *827:35 2.03526e-06
25 *1180:B *827:41 1.66587e-05
26 *1330:A *939:A 6.78445e-06
27 *1331:CI *827:35 0
28 *1339:CI *827:18 1.3043e-05
29 *1374:A *827:70 5.43728e-06
30 *1416:B *827:10 9.51745e-07
31 *1416:B *827:70 0
32 *34:13 *827:76 3.29001e-05
33 *51:38 *827:18 0
34 *85:44 *827:70 1.30746e-06
35 *87:10 *827:10 0
36 *195:10 *827:70 0
37 *367:6 *1593:A 5.62196e-06
38 *368:6 *939:A 2.96818e-06
39 *368:10 *827:41 0
40 *425:10 *827:41 3.04844e-06
41 *480:10 *827:70 5.79724e-07
42 *698:82 *827:12 6.38246e-06
43 *802:21 *827:41 5.67747e-07
44 *802:27 *1593:A 5.19475e-06
45 *803:30 *827:18 3.23425e-06
46 *804:27 *827:35 7.58265e-07
47 *804:27 *827:41 7.72307e-07
48 *804:29 *1190:A 1.1211e-07
49 *804:29 *827:35 1.65069e-05
50 *809:59 *827:70 0
51 *809:59 *827:76 0
52 *812:21 *827:41 0
53 *812:32 *827:41 0
54 *812:38 *827:41 0
55 *813:46 *827:41 1.98821e-06
56 *813:56 *827:18 0
57 *813:75 *827:35 8.06436e-06
58 *813:75 *827:41 2.18135e-06
*RES
1 *1617:Y *827:4 17.2 
2 *827:4 *827:10 35.9956 
3 *827:10 *827:12 18.6137 
4 *827:12 *827:18 41.3515 
5 *827:18 *1593:A 36.0045 
6 *827:12 *827:29 17.2 
7 *827:29 *827:35 38.3081 
8 *827:35 *827:41 45.7798 
9 *827:41 *939:A 44.0269 
10 *827:35 *913:B 17.2 
11 *827:29 *1190:A 35.057 
12 *827:4 *827:68 29.501 
13 *827:68 *827:70 29.8478 
14 *827:70 *827:76 36.3723 
15 *827:76 *1013:A 17.2 
16 *827:70 *1640:A 34.4 
*END

*D_NET *804 0.000377066
*CONN
*I *888:A I *D AND2x4_ASAP7_75t_R
*I *1638:A I *D BUFx6f_ASAP7_75t_R
*I *1594:Y O *D BUFx6f_ASAP7_75t_R
*CAP
1 *888:A 6.46808e-06
2 *1638:A 6.62264e-06
3 *1594:Y 1.6145e-05
4 *804:29 4.48436e-05
5 *804:27 9.74516e-05
6 *804:23 7.07534e-05
7 *804:10 3.4445e-05
8 *804:10 *817:48 2.28976e-06
9 *804:10 *834:61 0
10 *804:23 *816:8 0
11 *804:23 *848:8 0
12 *804:27 *816:12 2.64267e-05
13 *804:27 *827:35 7.58265e-07
14 *804:27 *827:41 7.72307e-07
15 *804:29 *888:B 0
16 *804:29 *1190:A 1.1211e-07
17 *804:29 *814:16 8.05934e-06
18 *804:29 *814:18 0
19 *804:29 *816:29 1.09067e-06
20 *804:29 *816:40 5.27066e-06
21 *804:29 *816:53 7.2313e-06
22 *804:29 *827:35 1.65069e-05
23 *804:29 *836:60 0
24 *1077:A *804:29 9.81516e-06
25 *356:10 *804:29 1.692e-05
26 *422:10 *888:A 0
27 *456:10 *804:29 2.84286e-06
28 *710:149 *804:23 2.24049e-06
29 *799:50 *804:10 0
*RES
1 *1594:Y *804:10 45.0151 
2 *804:10 *1638:A 37.0741 
3 *804:10 *804:23 26.2107 
4 *804:23 *804:27 45.5457 
5 *804:27 *804:29 37.169 
6 *804:29 *888:A 37.0741 
*END

*D_NET *828 0.000261997
*CONN
*I *1012:A I *D AND2x2_ASAP7_75t_R
*I *970:A I *D AND2x2_ASAP7_75t_R
*I *867:A I *D AND2x2_ASAP7_75t_R
*I *1618:Y O *D BUFx3_ASAP7_75t_R
*CAP
1 *1012:A 1.94949e-05
2 *970:A 5.22722e-06
3 *867:A 0
4 *1618:Y 0
5 *828:36 3.98439e-05
6 *828:25 2.44218e-05
7 *828:12 3.68686e-05
8 *828:6 3.80231e-05
9 *970:A *970:B 5.22376e-07
10 *828:12 *850:8 5.22244e-06
11 *828:25 *833:77 7.68503e-06
12 *828:36 *850:8 5.93543e-05
13 *867:B *828:12 3.46317e-06
14 *1350:A *828:25 0
15 *119:32 *828:25 0
16 *414:10 *828:36 2.4204e-06
17 *480:10 *1012:A 4.73041e-06
18 *514:8 *828:36 0
19 *550:6 *970:A 1.47193e-05
20 *716:36 *828:12 0
21 *716:36 *828:36 0
22 *827:76 *828:36 0
*RES
1 *1618:Y *828:6 34.4 
2 *828:6 *828:12 28.5163 
3 *828:12 *867:A 17.2 
4 *828:12 *828:25 47.7459 
5 *828:25 *970:A 21.4786 
6 *828:6 *828:36 39.7266 
7 *828:36 *1012:A 29.501 
*END

*D_NET *805 0.000179585
*CONN
*I *883:A I *D AND2x2_ASAP7_75t_R
*I *1279:A I *D AND2x2_ASAP7_75t_R
*I *884:A I *D AND2x2_ASAP7_75t_R
*I *1595:Y O *D BUFx3_ASAP7_75t_R
*CAP
1 *883:A 8.78942e-06
2 *1279:A 2.71427e-06
3 *884:A 0
4 *1595:Y 9.89077e-06
5 *805:18 3.15026e-05
6 *805:12 4.62298e-05
7 *805:10 3.06932e-05
8 *883:A *822:105 4.80731e-06
9 *1279:A *830:90 4.80731e-06
10 *805:18 *818:38 1.42301e-06
11 *805:18 *830:75 3.31011e-06
12 *1343:A *805:10 5.37569e-06
13 *1343:B *805:10 0
14 *1343:B *805:12 0
15 *211:12 *805:10 7.89539e-06
16 *211:12 *805:12 6.33206e-07
17 *544:8 *883:A 3.65131e-06
18 *559:12 *805:18 6.02341e-06
19 *610:8 *805:18 0
20 *619:8 *1279:A 1.18381e-05
*RES
1 *1595:Y *805:10 42.7625 
2 *805:10 *805:12 6.75799 
3 *805:12 *805:18 37.389 
4 *805:18 *884:A 17.2 
5 *805:12 *1279:A 37.609 
6 *805:10 *883:A 40.8179 
*END

*D_NET *806 0.000226595
*CONN
*I *1278:A I *D AND2x2_ASAP7_75t_R
*I *1204:B I *D AND2x2_ASAP7_75t_R
*I *1205:B I *D AND2x2_ASAP7_75t_R
*I *1596:Y O *D BUFx3_ASAP7_75t_R
*CAP
1 *1278:A 2.23539e-06
2 *1204:B 0
3 *1205:B 0
4 *1596:Y 1.80902e-05
5 *806:29 3.81264e-05
6 *806:23 8.41335e-05
7 *806:12 4.68768e-05
8 *806:8 2.11953e-05
9 *806:8 *1275:B 0
10 *806:8 *822:74 3.05118e-08
11 *806:8 *853:8 0
12 *806:23 *822:74 3.89037e-06
13 *806:23 *830:48 3.92089e-06
14 *5:10 *806:29 0
15 *258:29 *806:29 0
16 *444:8 *806:8 4.14603e-06
17 *500:8 *806:29 0
18 *501:8 *806:29 0
19 *700:8 *806:29 0
20 *705:42 *806:8 2.03413e-06
21 *713:39 *806:8 0
22 *714:24 *806:29 0
23 *714:34 *806:23 1.91585e-06
24 *714:44 *806:8 0
*RES
1 *1596:Y *806:8 46.2265 
2 *806:8 *806:12 18.2696 
3 *806:12 *1205:B 17.2 
4 *806:12 *806:23 35.1043 
5 *806:23 *806:29 43.049 
6 *806:29 *1204:B 17.2 
7 *806:23 *1278:A 35.4697 
*END

*D_NET *829 0.000346838
*CONN
*I *1212:B I *D AND2x4_ASAP7_75t_R
*I *1213:B I *D AND2x2_ASAP7_75t_R
*I *1619:Y O *D BUFx6f_ASAP7_75t_R
*CAP
1 *1212:B 0
2 *1213:B 1.07242e-05
3 *1619:Y 3.98682e-06
4 *829:20 2.63656e-05
5 *829:14 2.80941e-05
6 *829:10 5.94036e-05
7 *829:8 5.09377e-05
8 *863:A *1213:B 7.30263e-06
9 *1372:CI *829:10 0
10 *32:10 *829:10 5.28894e-06
11 *32:10 *829:14 6.7842e-07
12 *116:6 *829:10 4.86864e-05
13 *119:8 *829:20 0
14 *415:10 *829:14 5.22376e-06
15 *415:10 *829:20 1.33784e-05
16 *527:42 *829:10 1.7975e-06
17 *563:8 *829:20 4.3042e-06
18 *697:70 *829:20 6.46504e-06
19 *698:44 *829:10 2.76231e-07
20 *698:55 *829:10 0
21 *699:51 *829:10 7.39242e-05
*RES
1 *1619:Y *829:8 36.0045 
2 *829:8 *829:10 47.8691 
3 *829:10 *829:14 25.2224 
4 *829:14 *829:20 49.6055 
5 *829:20 *1213:B 22.5483 
6 *829:14 *1212:B 17.2 
*END

*D_NET *807 0.00028599
*CONN
*I *1644:A I *D BUFx6f_ASAP7_75t_R
*I *1233:B I *D AND2x4_ASAP7_75t_R
*I *1597:Y O *D BUFx12f_ASAP7_75t_R
*CAP
1 *1644:A 0
2 *1233:B 0
3 *1597:Y 9.39089e-06
4 *807:33 4.18078e-05
5 *807:22 4.73539e-06
6 *807:14 5.85965e-05
7 *807:10 0.00010506
8 *807:14 *854:20 0
9 *1233:A *807:22 6.7842e-07
10 *1321:A *807:33 0
11 *14:18 *807:33 1.12894e-06
12 *406:6 *807:33 0
13 *462:10 *807:33 0
14 *493:20 *807:14 3.91145e-05
15 *566:10 *807:33 0
16 *566:16 *807:14 0
17 *580:20 *807:14 4.86975e-06
18 *698:55 *807:33 0
19 *698:61 *807:14 0
20 *700:66 *807:14 0
21 *714:106 *807:10 1.42054e-05
22 *714:106 *807:33 4.15076e-06
23 *791:8 *807:22 2.25196e-06
*RES
1 *1597:Y *807:10 40.7914 
2 *807:10 *807:14 38.4109 
3 *807:14 *807:22 36.8492 
4 *807:22 *1233:B 17.2 
5 *807:10 *807:33 41.8074 
6 *807:33 *1644:A 17.2 
*END

*D_NET *808 3.5613e-05
*CONN
*I *1280:B I *D AND2x2_ASAP7_75t_R
*I *1282:B I *D AND2x2_ASAP7_75t_R
*I *1598:Y O *D BUFx3_ASAP7_75t_R
*CAP
1 *1280:B 5.48553e-06
2 *1282:B 0
3 *1598:Y 0
4 *808:12 8.67146e-06
5 *808:4 1.4157e-05
6 *40:14 *808:12 2.88806e-06
7 *41:10 *808:12 4.41094e-06
*RES
1 *1598:Y *808:4 17.2 
2 *808:4 *808:12 39.9183 
3 *808:12 *1282:B 17.2 
4 *808:4 *1280:B 19.3393 
*END

*D_NET *830 0.00071329
*CONN
*I *1275:B I *D AND2x2_ASAP7_75t_R
*I *1281:B I *D AND2x2_ASAP7_75t_R
*I *1279:B I *D AND2x2_ASAP7_75t_R
*I *1278:B I *D AND2x2_ASAP7_75t_R
*I *1277:B I *D AND2x2_ASAP7_75t_R
*I *1276:B I *D AND2x2_ASAP7_75t_R
*I *1620:Y O *D BUFx3_ASAP7_75t_R
*CAP
1 *1275:B 9.14703e-06
2 *1281:B 0
3 *1279:B 5.89397e-06
4 *1278:B 0
5 *1277:B 0
6 *1276:B 0
7 *1620:Y 1.98005e-05
8 *830:90 2.26336e-05
9 *830:75 3.3791e-05
10 *830:73 6.11224e-05
11 *830:67 0.000107263
12 *830:48 3.98266e-06
13 *830:40 7.30278e-05
14 *830:36 5.94735e-05
15 *830:25 5.70823e-05
16 *830:12 3.19848e-05
17 *830:8 2.73888e-05
18 *1275:B *837:39 7.89181e-07
19 *830:36 *1277:A 1.6259e-05
20 *830:36 *837:18 2.14037e-06
21 *830:36 *837:39 4.97876e-07
22 *830:36 *844:20 6.20986e-06
23 *830:40 *837:39 3.24457e-06
24 *830:40 *844:20 2.5353e-05
25 *830:40 *855:18 2.01307e-05
26 *830:67 *844:20 6.62913e-07
27 *830:67 *855:18 9.83163e-07
28 *830:73 *837:12 0
29 *830:73 *837:87 0
30 *1279:A *830:90 4.80731e-06
31 *349:56 *830:67 5.84462e-07
32 *349:56 *830:73 1.18447e-05
33 *350:27 *830:67 6.0126e-06
34 *558:12 *830:73 3.39771e-05
35 *619:8 *830:90 4.73041e-06
36 *701:8 *830:8 2.56604e-07
37 *702:12 *830:8 4.0993e-06
38 *702:21 *1275:B 1.44167e-06
39 *703:36 *830:73 4.86221e-07
40 *703:55 *830:67 0
41 *704:30 *830:67 0
42 *704:36 *830:67 5.55937e-06
43 *713:18 *830:25 2.55346e-06
44 *805:18 *830:75 3.31011e-06
45 *806:8 *1275:B 0
46 *806:23 *830:48 3.92089e-06
47 *818:38 *830:75 1.87804e-05
48 *818:38 *830:90 6.97416e-06
49 *822:28 *830:40 9.1854e-06
50 *822:28 *830:67 2.65931e-06
51 *822:36 *830:40 3.24457e-06
52 *822:74 *830:48 0
*RES
1 *1620:Y *830:8 49.6055 
2 *830:8 *830:12 20.9438 
3 *830:12 *1276:B 17.2 
4 *830:12 *830:25 48.5038 
5 *830:25 *1277:B 17.2 
6 *830:25 *830:36 34.8334 
7 *830:36 *830:40 28.6712 
8 *830:40 *830:48 36.6898 
9 *830:48 *1278:B 17.2 
10 *830:40 *830:67 49.025 
11 *830:67 *830:73 48.8582 
12 *830:73 *830:75 6.28869 
13 *830:75 *1279:B 37.609 
14 *830:75 *830:90 34.4561 
15 *830:90 *1281:B 17.2 
16 *830:36 *1275:B 39.318 
*END

*D_NET *711 0.000740895
*CONN
*I *1603:A I *D BUFx12f_ASAP7_75t_R
*I *927:B I *D AND2x2_ASAP7_75t_R
*I *929:B I *D AND2x4_ASAP7_75t_R
*I *1648:A I *D BUFx3_ASAP7_75t_R
*I *933:B I *D AND2x2_ASAP7_75t_R
*I *931:B I *D AND2x2_ASAP7_75t_R
*I *936:Y O *D BUFx12f_ASAP7_75t_R
*CAP
1 *1603:A 0
2 *927:B 0
3 *929:B 4.91545e-06
4 *1648:A 8.74861e-06
5 *933:B 0
6 *931:B 0
7 *936:Y 3.09323e-05
8 *711:85 4.24607e-05
9 *711:74 1.63111e-06
10 *711:66 7.52969e-05
11 *711:64 6.27409e-05
12 *711:51 0.000100462
13 *711:37 1.12489e-05
14 *711:29 2.98542e-05
15 *711:25 2.99072e-05
16 *711:14 4.5156e-05
17 *711:10 0.000120048
18 *711:25 *845:51 2.83188e-05
19 *711:51 *789:8 0
20 *711:51 *832:10 0
21 *711:51 *832:93 8.12775e-06
22 *711:64 *832:10 0
23 *711:66 *715:18 1.41512e-06
24 *711:85 *712:94 0
25 *711:85 *712:109 5.42655e-06
26 *711:85 *799:8 8.9577e-07
27 *1257:A *929:B 5.17782e-06
28 *1326:A *711:25 1.63988e-05
29 *1327:CI *711:51 0
30 *1351:B *711:51 0
31 *1351:CI *711:51 0
32 *25:8 *711:37 1.46419e-06
33 *28:14 *711:64 1.23321e-06
34 *28:30 *711:85 0
35 *29:8 *711:64 6.65157e-06
36 *238:8 *711:51 5.97901e-06
37 *352:10 *711:51 0
38 *361:8 *711:51 3.84001e-06
39 *385:10 *711:10 5.44247e-06
40 *385:10 *711:51 1.08226e-05
41 *417:8 *711:51 0
42 *417:20 *711:66 0
43 *419:10 *711:37 1.06925e-05
44 *427:10 *711:74 3.68287e-06
45 *527:22 *711:66 0
46 *701:103 *711:85 2.48419e-06
47 *701:118 *711:74 1.70708e-06
48 *702:86 *711:64 0
49 *703:78 *711:25 1.63871e-05
50 *703:78 *711:37 1.1508e-05
51 *703:91 *711:14 1.43369e-05
52 *703:91 *711:25 2.20493e-06
53 *710:48 *711:74 3.46317e-06
54 *710:56 *711:64 3.75295e-06
55 *710:56 *711:66 4.42444e-07
56 *710:84 *711:51 5.98744e-07
57 *710:90 *711:10 1.15945e-06
58 *710:90 *711:51 8.90818e-07
59 *710:101 *711:25 2.98814e-06
*RES
1 *936:Y *711:10 49.067 
2 *711:10 *711:14 33.7796 
3 *711:14 *931:B 17.2 
4 *711:14 *711:25 41.3311 
5 *711:25 *711:29 22.0134 
6 *711:29 *711:37 45.0151 
7 *711:37 *933:B 17.2 
8 *711:29 *1648:A 22.0134 
9 *711:10 *711:51 53.5008 
10 *711:51 *929:B 38.1438 
11 *711:51 *711:64 44.3258 
12 *711:64 *711:66 9.52327 
13 *711:66 *711:74 36.1267 
14 *711:74 *927:B 17.2 
15 *711:66 *711:85 34.3813 
16 *711:85 *1603:A 34.4 
*END

*D_NET *831 0.000119321
*CONN
*I *1274:B I *D AND2x2_ASAP7_75t_R
*I *1620:A I *D BUFx3_ASAP7_75t_R
*I *1621:Y O *D BUFx3_ASAP7_75t_R
*CAP
1 *1274:B 1.98094e-05
2 *1620:A 0
3 *1621:Y 0
4 *831:12 3.05659e-05
5 *831:6 5.03753e-05
6 *1274:B *858:8 0
7 *1274:B *858:12 5.94108e-06
8 *24:14 *1274:B 7.64042e-07
9 *24:14 *831:12 5.3846e-06
10 *696:55 *1274:B 0
11 *712:38 *1274:B 2.66409e-06
12 *811:10 *831:12 3.81627e-06
*RES
1 *1621:Y *831:6 34.4 
2 *831:6 *831:12 36.1456 
3 *831:12 *1620:A 17.2 
4 *831:6 *1274:B 47.6893 
*END

*D_NET *809 0.000596466
*CONN
*I *1012:B I *D AND2x2_ASAP7_75t_R
*I *1011:B I *D AND2x2_ASAP7_75t_R
*I *1013:B I *D AND2x2_ASAP7_75t_R
*I *1599:Y O *D BUFx3_ASAP7_75t_R
*CAP
1 *1012:B 0
2 *1011:B 0
3 *1013:B 3.52364e-06
4 *1599:Y 2.4606e-06
5 *809:59 3.14311e-05
6 *809:55 5.1326e-05
7 *809:40 2.52448e-05
8 *809:36 2.11312e-05
9 *809:24 0.000181072
10 *809:22 0.000161767
11 *809:20 8.84812e-06
12 *809:8 1.13087e-05
13 *809:36 *854:59 0
14 *809:59 *827:70 0
15 *809:59 *827:76 0
16 *809:59 *835:8 5.49212e-07
17 *809:59 *836:80 4.97876e-07
18 *809:59 *854:69 2.20028e-06
19 *1321:CI *809:8 0
20 *34:9 *809:55 1.12894e-06
21 *34:13 *1013:B 1.04475e-06
22 *36:9 *809:59 1.69499e-05
23 *87:10 *809:59 0
24 *110:18 *809:20 0
25 *493:20 *809:20 4.9328e-06
26 *493:30 *809:24 0
27 *536:26 *809:36 1.05402e-05
28 *541:28 *809:20 1.36767e-06
29 *697:85 *809:36 0
30 *698:26 *809:24 5.91418e-05
31 *791:8 *809:8 0
*RES
1 *1599:Y *809:8 36.1834 
2 *809:8 *809:20 43.1733 
3 *809:20 *809:22 8.2 
4 *809:22 *809:24 44.4337 
5 *809:24 *809:36 37.4427 
6 *809:36 *809:40 18.0447 
7 *809:40 *1013:B 36.0045 
8 *809:40 *809:55 28.8848 
9 *809:55 *809:59 43.1056 
10 *809:59 *1011:B 34.4 
11 *809:55 *1012:B 17.2 
*END

*D_NET *812 0.000577935
*CONN
*I *937:A I *D AND2x4_ASAP7_75t_R
*I *939:B I *D AND2x2_ASAP7_75t_R
*I *938:A I *D AND2x4_ASAP7_75t_R
*I *956:B I *D AND2x4_ASAP7_75t_R
*I *1602:Y O *D BUFx6f_ASAP7_75t_R
*CAP
1 *937:A 0
2 *939:B 5.59622e-06
3 *938:A 0
4 *956:B 6.35517e-06
5 *1602:Y 1.36486e-05
6 *812:63 6.95614e-07
7 *812:57 4.44383e-05
8 *812:38 3.73307e-05
9 *812:32 7.82366e-05
10 *812:21 7.32526e-05
11 *812:10 9.12836e-05
12 *812:8 2.80838e-05
13 *812:10 *813:8 0
14 *812:21 *827:41 0
15 *812:21 *854:42 0
16 *812:32 *827:41 0
17 *812:38 *827:41 0
18 *812:57 *836:35 3.31714e-06
19 *812:57 *836:52 1.36266e-05
20 *812:63 *836:52 1.34601e-06
21 *1329:B *812:21 6.00639e-06
22 *1329:CI *812:21 1.02642e-06
23 *1330:B *812:21 0
24 *1330:B *812:32 0
25 *1330:CI *812:21 0
26 *1372:CI *812:21 0
27 *37:10 *812:63 1.23321e-06
28 *50:6 *812:38 2.37953e-05
29 *83:14 *812:21 1.10453e-05
30 *84:10 *812:21 2.83874e-07
31 *84:18 *812:21 2.03998e-05
32 *368:6 *939:B 2.80323e-06
33 *402:14 *812:38 2.53183e-05
34 *402:14 *812:57 1.49402e-05
35 *426:14 *956:B 1.43637e-05
36 *458:8 *812:21 3.32579e-06
37 *459:8 *812:21 0
38 *525:8 *812:21 1.62854e-06
39 *537:16 *812:8 0
40 *697:36 *812:21 4.34249e-06
41 *697:47 *812:21 0
42 *699:34 *812:10 1.62114e-05
43 *699:104 *812:10 1.14117e-05
44 *699:104 *812:21 2.25884e-05
45 *802:21 *812:38 0
*RES
1 *1602:Y *812:8 40.2831 
2 *812:8 *812:10 12.3897 
3 *812:10 *956:B 38.1438 
4 *812:10 *812:21 59.6956 
5 *812:21 *938:A 34.4 
6 *812:21 *812:32 19.1711 
7 *812:32 *812:38 35.5385 
8 *812:38 *939:B 36.5393 
9 *812:32 *812:57 43.529 
10 *812:57 *812:63 35.4325 
11 *812:63 *937:A 17.2 
*END

*D_NET *811 0.00021968
*CONN
*I *967:B I *D AND2x2_ASAP7_75t_R
*I *1275:A I *D AND2x2_ASAP7_75t_R
*I *1601:Y O *D BUFx3_ASAP7_75t_R
*CAP
1 *967:B 0
2 *1275:A 0
3 *1601:Y 2.18619e-05
4 *811:25 2.08289e-05
5 *811:14 2.8139e-05
6 *811:10 7.08298e-05
7 *811:10 *831:12 3.81627e-06
8 *984:A *811:25 2.27522e-06
9 *1318:B *811:25 0
10 *1318:CI *811:25 2.95823e-06
11 *1324:B *811:25 0
12 *11:8 *811:25 3.95007e-06
13 *702:12 *811:10 6.33206e-07
14 *702:12 *811:14 3.90258e-06
15 *702:21 *811:14 6.01799e-05
16 *713:33 *811:25 3.05118e-07
*RES
1 *1601:Y *811:10 48.3905 
2 *811:10 *811:14 39.6627 
3 *811:14 *1275:A 17.2 
4 *811:10 *811:25 32.8836 
5 *811:25 *967:B 17.2 
*END

*D_NET *814 0.000166083
*CONN
*I *888:B I *D AND2x4_ASAP7_75t_R
*I *887:B I *D AND2x2_ASAP7_75t_R
*I *1604:Y O *D BUFx6f_ASAP7_75t_R
*CAP
1 *888:B 1.95855e-05
2 *887:B 8.57865e-06
3 *1604:Y 1.49226e-05
4 *814:18 3.76897e-05
5 *814:16 2.48683e-05
6 *814:8 3.02653e-05
7 *887:B *887:A 6.7842e-07
8 *888:B *816:53 0
9 *888:B *836:60 1.12894e-06
10 *814:8 *1190:B 9.08513e-06
11 *814:16 *836:60 0
12 *814:18 *836:60 4.42421e-06
13 *1075:A *887:B 1.02506e-06
14 *39:14 *814:8 5.09299e-06
15 *433:12 *888:B 0
16 *434:8 *888:B 0
17 *456:10 *814:16 6.7842e-07
18 *804:29 *888:B 0
19 *804:29 *814:16 8.05934e-06
20 *804:29 *814:18 0
*RES
1 *1604:Y *814:8 44.5617 
2 *814:8 *814:16 44.9018 
3 *814:16 *814:18 7.88432 
4 *814:18 *887:B 38.1438 
5 *814:18 *888:B 47.8026 
*END

*D_NET *813 0.000823047
*CONN
*I *913:A I *D AND2x4_ASAP7_75t_R
*I *1604:A I *D BUFx6f_ASAP7_75t_R
*I *923:B I *D AND2x2_ASAP7_75t_R
*I *925:B I *D AND2x4_ASAP7_75t_R
*I *1603:Y O *D BUFx12f_ASAP7_75t_R
*CAP
1 *913:A 3.21395e-06
2 *1604:A 0
3 *923:B 0
4 *925:B 0
5 *1603:Y 2.03569e-05
6 *813:75 2.72575e-05
7 *813:64 1.97056e-05
8 *813:56 7.14645e-05
9 *813:46 8.81538e-05
10 *813:33 2.36444e-05
11 *813:29 4.94707e-05
12 *813:27 4.51496e-05
13 *813:18 3.0308e-05
14 *813:14 4.72872e-05
15 *813:8 4.43079e-05
16 *913:A *827:35 2.03526e-06
17 *813:46 *827:41 1.98821e-06
18 *813:56 *827:18 0
19 *813:56 *848:23 4.4717e-08
20 *813:56 *848:27 0
21 *813:56 *852:18 1.35892e-06
22 *813:75 *1180:B 0
23 *813:75 *827:35 8.06436e-06
24 *813:75 *827:41 2.18135e-06
25 *923:A *813:46 3.68287e-06
26 *1331:CI *813:75 0
27 *1338:B *813:29 6.77515e-05
28 *1339:CI *813:64 0
29 *1354:B *813:29 0
30 *1354:CI *813:29 0
31 *50:6 *813:29 5.9673e-06
32 *81:8 *813:18 0
33 *114:6 *813:8 5.49212e-07
34 *357:10 *813:75 4.94008e-06
35 *357:18 *813:75 8.39119e-07
36 *378:8 *813:64 0
37 *402:14 *813:56 9.52895e-06
38 *402:14 *813:75 2.63652e-05
39 *435:8 *813:75 1.44925e-06
40 *446:8 *813:75 0
41 *699:110 *813:29 5.60551e-07
42 *799:8 *813:8 0
43 *799:8 *813:29 1.49407e-08
44 *799:18 *813:27 2.55346e-06
45 *799:18 *813:29 6.70758e-05
46 *799:50 *813:29 8.44061e-05
47 *799:65 *813:56 0
48 *802:17 *813:33 2.89992e-05
49 *802:17 *813:46 6.92634e-06
50 *802:21 *813:46 1.83103e-05
51 *803:8 *813:64 7.13409e-06
52 *812:10 *813:8 0
*RES
1 *1603:Y *813:8 49.5116 
2 *813:8 *813:14 42.6246 
3 *813:14 *813:18 32.4993 
4 *813:18 *925:B 17.2 
5 *813:18 *813:27 20.9438 
6 *813:27 *813:29 52.3744 
7 *813:29 *813:33 25.7572 
8 *813:33 *923:B 17.2 
9 *813:33 *813:46 45.2117 
10 *813:46 *813:56 42.7419 
11 *813:56 *813:64 46.1503 
12 *813:64 *1604:A 17.2 
13 *813:46 *813:75 33.723 
14 *813:75 *913:A 36.0045 
*END

*D_NET *816 0.000406197
*CONN
*I *1191:B I *D AND2x2_ASAP7_75t_R
*I *1192:B I *D AND2x2_ASAP7_75t_R
*I *1190:B I *D AND2x2_ASAP7_75t_R
*I *1181:A I *D AND2x4_ASAP7_75t_R
*I *1180:B I *D AND2x2_ASAP7_75t_R
*I *1606:Y O *D BUFx3_ASAP7_75t_R
*CAP
1 *1191:B 0
2 *1192:B 2.60032e-06
3 *1190:B 3.47114e-06
4 *1181:A 0
5 *1180:B 1.2642e-05
6 *1606:Y 3.58116e-06
7 *816:63 2.17637e-05
8 *816:55 2.75797e-05
9 *816:53 3.87596e-05
10 *816:40 4.8333e-05
11 *816:29 2.54044e-05
12 *816:14 2.35279e-05
13 *816:12 2.34614e-05
14 *816:8 2.70426e-05
15 *1180:B *827:41 1.66587e-05
16 *816:8 *848:8 4.99728e-06
17 *816:55 *848:52 4.57952e-06
18 *816:63 *848:52 1.05206e-05
19 *888:B *816:53 0
20 *1077:A *816:53 4.10928e-06
21 *1180:A *1180:B 5.47029e-06
22 *1358:A *816:63 1.12894e-06
23 *54:10 *816:63 0
24 *355:10 *1192:B 2.52755e-07
25 *356:10 *816:53 1.56807e-06
26 *357:10 *1180:B 1.87234e-05
27 *400:8 *816:63 3.65131e-06
28 *401:18 *816:53 8.06799e-07
29 *456:10 *816:53 2.04071e-05
30 *802:21 *1180:B 3.32579e-06
31 *802:21 *816:29 2.45681e-06
32 *802:21 *816:40 2.68933e-07
33 *804:23 *816:8 0
34 *804:27 *816:12 2.64267e-05
35 *804:29 *816:29 1.09067e-06
36 *804:29 *816:40 5.27066e-06
37 *804:29 *816:53 7.2313e-06
38 *813:75 *1180:B 0
39 *814:8 *1190:B 9.08513e-06
*RES
1 *1606:Y *816:8 38.3422 
2 *816:8 *816:12 35.9189 
3 *816:12 *816:14 17.2 
4 *816:14 *1180:B 47.6326 
5 *816:14 *816:29 25.0843 
6 *816:29 *1181:A 17.2 
7 *816:29 *816:40 27.8151 
8 *816:40 *1190:B 37.0741 
9 *816:40 *816:53 44.232 
10 *816:53 *816:55 6.4179 
11 *816:55 *816:63 49.6585 
12 *816:63 *1192:B 18.2696 
13 *816:55 *1191:B 17.2 
*END

*D_NET *815 0.000127309
*CONN
*I *1283:A I *D AND2x2_ASAP7_75t_R
*I *1176:B I *D AND2x4_ASAP7_75t_R
*I *1605:Y O *D BUFx3_ASAP7_75t_R
*CAP
1 *1283:A 1.9526e-05
2 *1176:B 0
3 *1605:Y 1.07902e-06
4 *815:20 1.0515e-05
5 *815:12 4.70799e-05
6 *815:8 1.8118e-05
7 *815:20 *822:56 1.52651e-06
8 *1326:A *815:8 8.58704e-06
9 *25:8 *815:20 1.09067e-06
10 *418:8 *815:20 1.44167e-06
11 *703:78 *815:20 9.62742e-06
12 *710:101 *815:8 8.71771e-06
*RES
1 *1605:Y *815:8 37.2158 
2 *815:8 *815:12 25.2224 
3 *815:12 *815:20 43.354 
4 *815:20 *1176:B 17.2 
5 *815:12 *1283:A 28.4313 
*END

*D_NET *817 0.000778618
*CONN
*I *1199:B I *D AND2x4_ASAP7_75t_R
*I *1200:A I *D AND2x4_ASAP7_75t_R
*I *1202:A I *D AND2x4_ASAP7_75t_R
*I *1201:B I *D AND2x4_ASAP7_75t_R
*I *1292:B I *D AND2x4_ASAP7_75t_R
*I *1198:B I *D AND2x2_ASAP7_75t_R
*I *1607:Y O *D BUFx3_ASAP7_75t_R
*CAP
1 *1199:B 0
2 *1200:A 1.33731e-06
3 *1202:A 0
4 *1201:B 0
5 *1292:B 6.86693e-07
6 *1198:B 0
7 *1607:Y 1.01774e-05
8 *817:123 1.536e-05
9 *817:115 5.0316e-05
10 *817:103 5.4827e-05
11 *817:88 4.91513e-05
12 *817:82 4.78547e-05
13 *817:70 8.38737e-05
14 *817:60 7.56212e-05
15 *817:48 3.03358e-05
16 *817:46 3.98179e-05
17 *817:40 4.72284e-05
18 *817:25 5.29586e-05
19 *817:14 8.49506e-06
20 *817:6 4.21826e-05
21 *817:46 *834:61 2.02132e-05
22 *817:60 *834:61 0
23 *817:82 *835:30 0
24 *817:82 *848:33 3.54192e-07
25 *817:88 *1201:A 1.77337e-05
26 *817:115 *835:30 1.91634e-05
27 *817:123 *835:88 6.66161e-06
28 *1200:B *817:88 1.44167e-06
29 *1337:CI *817:25 1.182e-05
30 *1337:CI *817:40 2.66363e-05
31 *1338:A *1292:B 3.68287e-06
32 *1338:A *817:6 2.03401e-06
33 *1338:A *817:25 3.80537e-06
34 *1594:A *817:46 0
35 *1607:A *817:14 0
36 *49:10 *817:46 0
37 *51:28 *817:70 0
38 *53:18 *817:88 0
39 *274:17 *817:115 7.53445e-06
40 *369:16 *817:14 1.52651e-06
41 *377:8 *817:103 1.10561e-06
42 *388:10 *817:88 6.53466e-06
43 *402:10 *817:60 1.49407e-08
44 *519:14 *817:123 0
45 *697:8 *817:46 0
46 *697:28 *817:70 1.46593e-06
47 *710:26 *817:70 1.79565e-05
48 *710:34 *817:70 1.61363e-05
49 *733:30 *817:123 0
50 *798:71 *817:46 2.83874e-07
51 *804:10 *817:48 2.28976e-06
*RES
1 *1607:Y *817:6 22.0134 
2 *817:6 *817:14 38.8486 
3 *817:14 *1198:B 17.2 
4 *817:6 *817:25 31.3038 
5 *817:25 *1292:B 35.4697 
6 *817:25 *817:40 34.3464 
7 *817:40 *817:46 49.6055 
8 *817:46 *817:48 12.301 
9 *817:48 *817:60 49.5145 
10 *817:60 *817:70 49.1382 
11 *817:70 *817:82 44.4393 
12 *817:82 *817:88 38.8002 
13 *817:88 *1201:B 17.2 
14 *817:88 *817:103 45.0936 
15 *817:103 *817:115 49.0045 
16 *817:115 *817:123 36.6239 
17 *817:123 *1202:A 34.4 
18 *817:82 *1200:A 35.4325 
19 *817:48 *1199:B 17.2 
*END

*D_NET *810 0.000258886
*CONN
*I *1641:A I *D BUFx6f_ASAP7_75t_R
*I *1224:A I *D AND2x4_ASAP7_75t_R
*I *1225:B I *D AND2x4_ASAP7_75t_R
*I *1600:Y O *D BUFx6f_ASAP7_75t_R
*CAP
1 *1641:A 2.93235e-06
2 *1224:A 0
3 *1225:B 3.85412e-06
4 *1600:Y 1.34855e-05
5 *810:37 6.99786e-06
6 *810:31 4.39523e-05
7 *810:16 5.34822e-05
8 *810:12 1.94323e-05
9 *810:8 1.73118e-05
10 *1641:A *819:42 2.03526e-06
11 *810:8 *819:8 6.16067e-06
12 *810:8 *819:42 1.94317e-06
13 *810:12 *819:42 2.03526e-06
14 *810:16 *819:42 8.00051e-06
15 *810:16 *819:46 3.32157e-05
16 *810:31 *819:46 1.15587e-05
17 *367:6 *1225:B 9.31704e-06
18 *377:8 *810:37 0
19 *800:14 *1225:B 1.95129e-06
20 *800:14 *810:8 9.66208e-06
21 *800:14 *810:16 2.33656e-06
22 *802:29 *810:37 3.47607e-06
23 *802:48 *810:31 1.01102e-06
24 *802:48 *810:37 4.7341e-06
*RES
1 *1600:Y *810:8 46.2265 
2 *810:8 *810:12 18.8045 
3 *810:12 *810:16 30.716 
4 *810:16 *1225:B 37.0741 
5 *810:16 *810:31 36.1456 
6 *810:31 *810:37 40.5948 
7 *810:37 *1224:A 17.2 
8 *810:12 *1641:A 18.8045 
*END

*D_NET *712 0.00101033
*CONN
*I *966:B I *D AND2x2_ASAP7_75t_R
*I *1602:A I *D BUFx6f_ASAP7_75t_R
*I *962:B I *D AND2x2_ASAP7_75t_R
*I *963:B I *D AND2x4_ASAP7_75t_R
*I *964:B I *D AND2x2_ASAP7_75t_R
*I *1601:A I *D BUFx3_ASAP7_75t_R
*I *965:B I *D AND2x2_ASAP7_75t_R
*I *934:Y O *D BUFx6f_ASAP7_75t_R
*CAP
1 *966:B 0
2 *1602:A 1.37917e-05
3 *962:B 0
4 *963:B 0
5 *964:B 4.07623e-06
6 *1601:A 0
7 *965:B 3.31212e-05
8 *934:Y 3.98682e-06
9 *712:115 1.93985e-05
10 *712:109 2.37953e-05
11 *712:98 2.60771e-05
12 *712:94 3.92389e-05
13 *712:84 3.74439e-05
14 *712:67 1.09634e-05
15 *712:63 4.38532e-05
16 *712:52 8.90715e-05
17 *712:46 8.39867e-05
18 *712:42 4.35555e-05
19 *712:38 4.00761e-05
20 *712:25 5.8643e-05
21 *712:12 8.77803e-05
22 *712:8 3.44985e-05
23 *1602:A *799:8 3.14815e-06
24 *712:38 *1274:B 2.66409e-06
25 *712:38 *822:54 1.22514e-06
26 *712:38 *822:56 6.7842e-07
27 *712:38 *858:8 0
28 *712:38 *858:27 7.7223e-06
29 *712:42 *822:56 1.37386e-05
30 *712:109 *799:8 0
31 *947:A *964:B 1.66584e-05
32 *963:A *712:63 5.09995e-06
33 *963:A *712:84 1.16088e-06
34 *1327:CI *712:63 4.06388e-06
35 *1351:A *712:52 6.04616e-06
36 *1351:A *712:63 1.76569e-05
37 *1351:CI *712:52 7.57041e-06
38 *1351:CI *712:63 2.07715e-05
39 *1353:CI *1602:A 1.64764e-06
40 *1353:CI *712:109 2.69941e-05
41 *1397:B *712:46 3.25708e-06
42 *24:14 *965:B 1.00935e-05
43 *24:14 *712:25 1.79557e-05
44 *24:14 *712:38 9.30479e-06
45 *25:8 *712:46 0
46 *76:8 *712:63 3.08683e-05
47 *77:14 *712:63 4.42421e-06
48 *81:8 *1602:A 4.14536e-06
49 *360:10 *1602:A 2.15434e-06
50 *386:6 *964:B 6.45454e-06
51 *408:10 *712:38 0
52 *417:20 *712:94 6.97583e-07
53 *420:8 *712:46 4.10928e-06
54 *420:14 *712:38 1.44167e-06
55 *420:14 *712:42 1.06856e-05
56 *439:10 *712:67 1.20167e-05
57 *439:10 *712:84 4.05232e-06
58 *449:10 *712:109 6.86929e-06
59 *460:8 *1602:A 8.54452e-06
60 *696:55 *712:46 0
61 *700:91 *712:94 0
62 *700:91 *712:109 7.39755e-06
63 *701:70 *712:94 1.78061e-05
64 *701:78 *712:84 3.84734e-08
65 *701:78 *712:94 4.84362e-06
66 *701:103 *712:94 6.90157e-06
67 *702:63 *712:52 0
68 *702:80 *712:63 0
69 *705:108 *712:38 0
70 *710:44 *712:94 6.33206e-07
71 *711:85 *712:94 0
72 *711:85 *712:109 5.42655e-06
*RES
1 *934:Y *712:8 36.0045 
2 *712:8 *712:12 40.853 
3 *712:12 *965:B 35.9189 
4 *712:12 *712:25 34.1197 
5 *712:25 *1601:A 34.4 
6 *712:25 *712:38 46.428 
7 *712:38 *712:42 26.8269 
8 *712:42 *712:46 47.3294 
9 *712:46 *712:52 37.1817 
10 *712:52 *964:B 39.2134 
11 *712:52 *712:63 42.8006 
12 *712:63 *712:67 20.409 
13 *712:67 *963:B 17.2 
14 *712:67 *712:84 49.0055 
15 *712:84 *712:94 45.7768 
16 *712:94 *712:98 21.4786 
17 *712:98 *962:B 17.2 
18 *712:98 *712:109 35.8375 
19 *712:109 *712:115 37.0741 
20 *712:115 *1602:A 48.4791 
21 *712:38 *966:B 17.2 
*END

*D_NET *832 0.000729851
*CONN
*I *1280:A I *D AND2x2_ASAP7_75t_R
*I *1218:B I *D AND2x2_ASAP7_75t_R
*I *1600:A I *D BUFx6f_ASAP7_75t_R
*I *1223:B I *D AND2x2_ASAP7_75t_R
*I *1222:A I *D AND2x4_ASAP7_75t_R
*I *1217:B I *D AND2x2_ASAP7_75t_R
*I *1622:Y O *D BUFx12f_ASAP7_75t_R
*CAP
1 *1280:A 1.82121e-05
2 *1218:B 0
3 *1600:A 0
4 *1223:B 1.04218e-05
5 *1222:A 0
6 *1217:B 2.63831e-06
7 *1622:Y 0
8 *832:93 5.95239e-05
9 *832:84 1.53849e-05
10 *832:71 1.73723e-05
11 *832:58 4.76513e-05
12 *832:45 2.6543e-05
13 *832:37 7.27765e-05
14 *832:33 9.76482e-05
15 *832:18 1.96148e-05
16 *832:10 0.000104204
17 *832:8 7.77746e-05
18 *832:4 4.80314e-05
19 *832:37 *834:31 0
20 *1223:A *1223:B 5.34278e-06
21 *1223:A *832:58 3.26065e-06
22 *1352:B *832:10 1.21742e-05
23 *1432:B *1280:A 4.17901e-06
24 *28:14 *832:10 4.93044e-07
25 *42:40 *832:10 7.3874e-07
26 *199:12 *832:71 4.10928e-06
27 *361:14 *832:8 0
28 *583:27 *832:71 1.70708e-06
29 *699:10 *832:10 1.88168e-06
30 *699:10 *832:18 1.02407e-06
31 *699:20 *832:33 0
32 *706:16 *832:33 2.49841e-06
33 *706:16 *832:37 1.65814e-05
34 *706:16 *832:84 1.36581e-06
35 *708:18 *832:10 0
36 *708:18 *832:93 0
37 *709:16 *832:37 1.6924e-05
38 *709:42 *832:93 0
39 *709:44 *832:93 0
40 *709:96 *832:10 7.47402e-07
41 *709:96 *832:18 1.36155e-06
42 *711:51 *832:10 0
43 *711:51 *832:93 8.12775e-06
44 *711:64 *832:10 0
45 *715:8 *832:10 4.93044e-07
46 *717:10 *832:71 1.84899e-06
47 *789:8 *832:93 1.70708e-06
48 *789:44 *832:33 3.67907e-06
49 *789:59 *832:37 2.65244e-06
50 *789:59 *832:84 2.77387e-08
51 *796:8 *832:10 0
52 *796:19 *832:10 0
53 *796:19 *832:33 0
54 *796:19 *832:84 1.60621e-05
55 *798:54 *832:45 3.06692e-06
56 *799:34 *832:45 0
*RES
1 *1622:Y *832:4 17.2 
2 *832:4 *832:8 19.8741 
3 *832:8 *832:10 56.8798 
4 *832:10 *832:18 42.5924 
5 *832:18 *1217:B 35.4697 
6 *832:10 *832:33 26.2991 
7 *832:33 *832:37 41.4297 
8 *832:37 *832:45 32.7721 
9 *832:45 *1222:A 34.4 
10 *832:45 *832:58 29.0512 
11 *832:58 *1223:B 24.1527 
12 *832:58 *832:71 47.3528 
13 *832:71 *1600:A 17.2 
14 *832:33 *832:84 42.4522 
15 *832:84 *1218:B 17.2 
16 *832:4 *832:93 47.0478 
17 *832:93 *1280:A 45.0965 
*END

*D_NET *818 0.000347532
*CONN
*I *1281:A I *D AND2x2_ASAP7_75t_R
*I *1007:B I *D AND2x2_ASAP7_75t_R
*I *1009:B I *D AND2x2_ASAP7_75t_R
*I *1008:B I *D AND2x2_ASAP7_75t_R
*I *1608:Y O *D BUFx3_ASAP7_75t_R
*CAP
1 *1281:A 0
2 *1007:B 0
3 *1009:B 0
4 *1008:B 0
5 *1608:Y 0
6 *818:63 3.41432e-05
7 *818:48 9.44194e-06
8 *818:38 6.07182e-05
9 *818:27 2.76553e-05
10 *818:12 2.76553e-05
11 *818:10 2.41718e-05
12 *818:4 4.1305e-05
13 *818:27 *1009:A 0
14 *818:27 *822:126 9.51745e-07
15 *818:38 *830:75 1.87804e-05
16 *818:38 *830:90 6.97416e-06
17 *818:48 *822:97 1.76289e-07
18 *818:63 *822:97 8.81447e-07
19 *818:63 *822:118 4.8203e-06
20 *1007:A *818:48 3.68287e-06
21 *209:10 *818:10 0
22 *512:8 *818:10 0
23 *558:8 *818:38 0
24 *558:12 *818:48 2.2815e-06
25 *558:12 *818:63 5.28609e-06
26 *558:16 *818:63 1.70708e-06
27 *559:8 *818:10 1.69111e-06
28 *559:8 *818:38 6.10236e-07
29 *559:12 *818:10 6.02341e-06
30 *707:6 *818:27 2.65066e-05
31 *707:10 *818:10 4.06449e-05
32 *707:20 *818:48 0
33 *805:18 *818:38 1.42301e-06
*RES
1 *1608:Y *818:4 17.2 
2 *818:4 *818:10 36.2626 
3 *818:10 *818:12 17.2 
4 *818:12 *1008:B 17.2 
5 *818:12 *818:27 49.0387 
6 *818:27 *1009:B 17.2 
7 *818:4 *818:38 49.5116 
8 *818:38 *818:48 39.8061 
9 *818:48 *1007:B 17.2 
10 *818:38 *818:63 48.782 
11 *818:63 *1281:A 17.2 
*END

*D_NET *833 0.000534879
*CONN
*I *969:B I *D AND2x2_ASAP7_75t_R
*I *970:B I *D AND2x2_ASAP7_75t_R
*I *971:B I *D AND2x2_ASAP7_75t_R
*I *972:B I *D AND2x2_ASAP7_75t_R
*I *1623:Y O *D BUFx3_ASAP7_75t_R
*CAP
1 *969:B 1.73277e-05
2 *970:B 2.585e-06
3 *971:B 2.77556e-06
4 *972:B 0
5 *1623:Y 1.00824e-06
6 *833:77 3.91858e-05
7 *833:60 5.80929e-05
8 *833:49 3.87993e-05
9 *833:45 5.0553e-05
10 *833:34 7.48143e-06
11 *833:22 9.99317e-05
12 *833:16 7.75601e-05
13 *833:8 3.42971e-05
14 *970:A *970:B 5.22376e-07
15 *1189:A *833:34 3.19649e-06
16 *1349:A *833:60 0
17 *1350:A *969:B 4.97342e-06
18 *1350:A *833:77 0
19 *1390:A *833:34 1.79289e-07
20 *66:8 *833:8 1.4374e-06
21 *66:14 *833:8 0
22 *73:8 *833:60 3.76218e-06
23 *74:8 *969:B 2.1117e-06
24 *118:30 *833:77 1.43936e-05
25 *119:32 *969:B 8.2174e-07
26 *119:32 *833:77 1.0445e-05
27 *159:14 *971:B 0
28 *566:22 *833:22 0
29 *580:28 *833:22 6.0126e-06
30 *589:8 *969:B 0
31 *601:10 *969:B 5.33743e-06
32 *602:8 *833:60 0
33 *613:8 *833:60 0
34 *613:8 *833:77 0
35 *635:18 *833:45 3.2399e-06
36 *716:53 *833:45 1.32451e-05
37 *716:63 *833:45 4.99415e-06
38 *716:148 *833:34 1.24672e-08
39 *770:22 *833:60 2.29108e-05
40 *828:25 *833:77 7.68503e-06
*RES
1 *1623:Y *833:8 35.4325 
2 *833:8 *833:16 41.1754 
3 *833:16 *833:22 33.1036 
4 *833:22 *833:34 48.9006 
5 *833:34 *972:B 17.2 
6 *833:22 *833:45 33.1108 
7 *833:45 *833:49 18.4202 
8 *833:49 *971:B 35.4697 
9 *833:49 *833:60 25.9056 
10 *833:60 *970:B 35.4697 
11 *833:60 *833:77 46.1284 
12 *833:77 *969:B 47.39 
*END

*D_NET *819 0.000366504
*CONN
*I *1245:B I *D AND2x4_ASAP7_75t_R
*I *1246:B I *D AND2x4_ASAP7_75t_R
*I *1247:B I *D AND2x4_ASAP7_75t_R
*I *1248:A I *D AND2x4_ASAP7_75t_R
*I *1609:Y O *D BUFx6f_ASAP7_75t_R
*CAP
1 *1245:B 9.4515e-06
2 *1246:B 1.8518e-05
3 *1247:B 4.5317e-06
4 *1248:A 1.0775e-05
5 *1609:Y 3.64037e-06
6 *819:46 5.19379e-05
7 *819:42 3.84065e-05
8 *819:16 1.78399e-05
9 *819:12 4.2538e-05
10 *819:8 5.80832e-05
11 *1246:B *1246:A 2.03526e-06
12 *1248:A *835:54 5.03676e-07
13 *819:12 *834:37 2.49344e-08
14 *819:12 *834:61 3.74016e-08
15 *819:12 *835:54 2.49344e-08
16 *819:12 *835:69 1.06239e-05
17 *819:46 *849:10 0
18 *1641:A *819:42 2.03526e-06
19 *199:12 *1248:A 0
20 *199:12 *819:16 0
21 *364:10 *819:16 2.13376e-07
22 *376:8 *819:46 0
23 *377:8 *819:46 0
24 *750:18 *819:12 0
25 *799:73 *819:8 2.22144e-06
26 *800:14 *819:46 3.01482e-05
27 *810:8 *819:8 6.16067e-06
28 *810:8 *819:42 1.94317e-06
29 *810:12 *819:42 2.03526e-06
30 *810:16 *819:42 8.00051e-06
31 *810:16 *819:46 3.32157e-05
32 *810:31 *819:46 1.15587e-05
*RES
1 *1609:Y *819:8 39.1869 
2 *819:8 *819:12 33.2164 
3 *819:12 *819:16 18.6079 
4 *819:16 *1248:A 42.2843 
5 *819:16 *1247:B 36.5393 
6 *819:8 *819:42 42.9874 
7 *819:42 *819:46 43.1056 
8 *819:46 *1246:B 28.4313 
9 *819:46 *1245:B 23.0831 
*END

*D_NET *834 0.000607944
*CONN
*I *1241:B I *D AND2x2_ASAP7_75t_R
*I *1243:B I *D AND2x2_ASAP7_75t_R
*I *1244:A I *D AND2x4_ASAP7_75t_R
*I *1609:A I *D BUFx6f_ASAP7_75t_R
*I *1242:B I *D AND2x4_ASAP7_75t_R
*I *1624:Y O *D BUFx12f_ASAP7_75t_R
*CAP
1 *1241:B 1.69046e-05
2 *1243:B 3.18186e-06
3 *1244:A 1.14856e-05
4 *1609:A 6.14693e-06
5 *1242:B 2.62297e-06
6 *1624:Y 0
7 *834:76 4.57378e-05
8 *834:61 5.94394e-05
9 *834:37 3.00169e-05
10 *834:31 0.00012314
11 *834:27 5.85965e-05
12 *834:10 3.75551e-05
13 *834:4 5.96671e-05
14 *1244:A *1226:B 4.29278e-06
15 *1244:A *851:18 3.96761e-06
16 *1244:A *852:36 3.02328e-05
17 *834:37 *852:36 1.8783e-05
18 *1218:A *1241:B 6.07405e-06
19 *1624:A *834:10 0
20 *199:12 *834:37 2.42729e-06
21 *267:16 *834:31 0
22 *381:8 *1241:B 1.86049e-06
23 *697:18 *834:61 3.74016e-08
24 *709:16 *834:31 1.50432e-05
25 *796:19 *834:76 8.35336e-06
26 *796:34 *834:10 0
27 *796:34 *834:76 2.96994e-05
28 *798:71 *834:61 0
29 *799:65 *834:61 1.24018e-05
30 *804:10 *834:61 0
31 *817:46 *834:61 2.02132e-05
32 *817:60 *834:61 0
33 *819:12 *834:37 2.49344e-08
34 *819:12 *834:61 3.74016e-08
35 *832:37 *834:31 0
*RES
1 *1624:Y *834:4 17.2 
2 *834:4 *834:10 32.037 
3 *834:10 *1242:B 35.4697 
4 *834:10 *834:27 30.5195 
5 *834:27 *834:31 38.6947 
6 *834:31 *834:37 26.6899 
7 *834:37 *1609:A 36.5393 
8 *834:37 *1244:A 46.2265 
9 *834:31 *834:61 45.4272 
10 *834:61 *1243:B 35.4697 
11 *834:4 *834:76 35.4727 
12 *834:76 *1241:B 44.5617 
*END

*D_NET *820 8.81183e-05
*CONN
*I *1299:B I *D AND2x2_ASAP7_75t_R
*I *969:A I *D AND2x2_ASAP7_75t_R
*I *1610:Y O *D BUFx3_ASAP7_75t_R
*CAP
1 *1299:B 1.84857e-06
2 *969:A 1.48837e-05
3 *1610:Y 1.83579e-05
4 *820:8 3.50902e-05
5 *990:A *1299:B 3.89037e-06
6 *1373:A *969:A 2.68933e-07
7 *1373:A *820:8 1.64348e-06
8 *120:10 *969:A 0
9 *120:16 *820:8 3.79923e-06
10 *589:8 *969:A 3.89037e-06
11 *589:12 *969:A 0
12 *589:12 *820:8 0
13 *716:18 *820:8 2.1664e-06
14 *716:26 *969:A 1.09067e-06
15 *716:26 *1299:B 2.90209e-08
16 *716:30 *969:A 1.15945e-06
*RES
1 *1610:Y *820:8 47.3528 
2 *820:8 *969:A 44.4803 
3 *820:8 *1299:B 35.4697 
*END

*D_NET *835 0.00111235
*CONN
*I *1011:A I *D AND2x2_ASAP7_75t_R
*I *1192:A I *D AND2x2_ASAP7_75t_R
*I *1202:B I *D AND2x4_ASAP7_75t_R
*I *1227:A I *D AND2x4_ASAP7_75t_R
*I *1248:B I *D AND2x4_ASAP7_75t_R
*I *1625:Y O *D BUFx6f_ASAP7_75t_R
*CAP
1 *1011:A 0
2 *1192:A 2.28923e-06
3 *1202:B 0
4 *1227:A 0
5 *1248:B 0
6 *1625:Y 1.86556e-06
7 *835:126 1.13e-05
8 *835:107 1.26602e-05
9 *835:88 1.98966e-05
10 *835:69 2.72323e-05
11 *835:54 3.93481e-05
12 *835:44 7.26981e-05
13 *835:40 0.000115417
14 *835:30 0.000220181
15 *835:28 0.000183054
16 *835:22 0.000128313
17 *835:16 9.31676e-05
18 *835:8 3.71176e-05
19 *835:16 *836:25 8.36681e-08
20 *835:16 *836:35 0
21 *835:16 *836:52 0
22 *835:16 *854:59 1.40537e-06
23 *835:44 *852:28 0
24 *835:54 *852:28 0
25 *835:69 *851:18 7.82377e-07
26 *835:69 *852:28 5.89245e-07
27 *1248:A *835:54 5.03676e-07
28 *1358:A *835:107 0
29 *51:28 *835:28 1.32396e-05
30 *85:30 *835:22 4.93954e-05
31 *85:38 *835:16 5.39693e-06
32 *85:38 *835:126 7.48374e-06
33 *91:16 *1192:A 2.90209e-08
34 *274:17 *835:30 0
35 *274:17 *835:40 0
36 *421:16 *835:107 6.43239e-06
37 *698:82 *835:22 1.7971e-05
38 *750:24 *835:40 7.47836e-06
39 *809:59 *835:8 5.49212e-07
40 *817:82 *835:30 0
41 *817:115 *835:30 1.91634e-05
42 *817:123 *835:88 6.66161e-06
43 *819:12 *835:54 2.49344e-08
44 *819:12 *835:69 1.06239e-05
*RES
1 *1625:Y *835:8 35.6202 
2 *835:8 *835:16 43.9105 
3 *835:16 *835:22 34.398 
4 *835:22 *835:28 31.9634 
5 *835:28 *835:30 23.1888 
6 *835:30 *835:40 42.0425 
7 *835:40 *835:44 14.1552 
8 *835:44 *835:54 44.0017 
9 *835:54 *1248:B 34.4 
10 *835:44 *835:69 39.7181 
11 *835:69 *1227:A 34.4 
12 *835:30 *835:88 48.4225 
13 *835:88 *1202:B 34.4 
14 *835:28 *835:107 45.1711 
15 *835:107 *1192:A 35.4697 
16 *835:16 *835:126 33.7152 
17 *835:126 *1011:A 34.4 
*END

*D_NET *836 0.000429344
*CONN
*I *1237:A I *D AND2x2_ASAP7_75t_R
*I *937:B I *D AND2x4_ASAP7_75t_R
*I *887:A I *D AND2x2_ASAP7_75t_R
*I *1625:A I *D BUFx6f_ASAP7_75t_R
*I *1610:A I *D BUFx3_ASAP7_75t_R
*I *1626:Y O *D BUFx6f_ASAP7_75t_R
*CAP
1 *1237:A 0
2 *937:B 0
3 *887:A 5.6263e-06
4 *1625:A 0
5 *1610:A 7.6755e-07
6 *1626:Y 7.57459e-06
7 *836:80 9.02085e-07
8 *836:60 3.59455e-05
9 *836:56 3.41566e-05
10 *836:52 3.96364e-05
11 *836:35 1.15238e-05
12 *836:25 8.26194e-05
13 *836:21 7.97372e-05
14 *836:8 5.18806e-05
15 *836:25 *854:69 5.37605e-06
16 *887:B *887:A 6.7842e-07
17 *888:B *836:60 1.12894e-06
18 *1075:A *887:A 5.01287e-06
19 *1331:CI *836:52 4.49262e-06
20 *1332:A *836:60 0
21 *1373:A *1610:A 5.4219e-06
22 *1373:A *836:8 4.47696e-06
23 *1395:A *836:8 0
24 *37:10 *836:52 1.5837e-06
25 *37:10 *836:60 0
26 *85:38 *836:21 0
27 *85:38 *836:25 0
28 *121:14 *1610:A 5.4219e-06
29 *121:14 *836:8 9.53863e-06
30 *357:18 *836:52 0
31 *423:10 *836:60 2.77657e-06
32 *434:8 *836:60 9.76987e-06
33 *446:8 *836:35 0
34 *695:71 *836:21 0
35 *804:29 *836:60 0
36 *809:59 *836:80 4.97876e-07
37 *812:57 *836:35 3.31714e-06
38 *812:57 *836:52 1.36266e-05
39 *812:63 *836:52 1.34601e-06
40 *814:16 *836:60 0
41 *814:18 *836:60 4.42421e-06
42 *827:12 *836:52 0
43 *827:35 *836:52 0
44 *827:35 *836:60 0
45 *835:16 *836:25 8.36681e-08
46 *835:16 *836:35 0
47 *835:16 *836:52 0
*RES
1 *1626:Y *836:8 41.0641 
2 *836:8 *1610:A 36.1834 
3 *836:8 *836:21 36.463 
4 *836:21 *836:25 24.5157 
5 *836:25 *836:35 34.4392 
6 *836:35 *1625:A 34.4 
7 *836:25 *836:52 48.7941 
8 *836:52 *836:56 18.8045 
9 *836:56 *836:60 40.853 
10 *836:60 *887:A 38.1438 
11 *836:56 *937:B 17.2 
12 *836:21 *836:80 35.057 
13 *836:80 *1237:A 17.2 
*END

*D_NET *821 0.000266717
*CONN
*I *1048:B I *D OR3x1_ASAP7_75t_R
*I *1046:A I *D OR3x1_ASAP7_75t_R
*I *1561:A I *D BUFx3_ASAP7_75t_R
*I *1051:A I *D OR2x2_ASAP7_75t_R
*I *1611:Y O *D BUFx3_ASAP7_75t_R
*CAP
1 *1048:B 1.26825e-05
2 *1046:A 0
3 *1561:A 3.69278e-06
4 *1051:A 0
5 *1611:Y 0
6 *821:46 1.3012e-05
7 *821:38 3.59196e-05
8 *821:23 3.27788e-05
9 *821:14 2.24832e-05
10 *821:8 3.98472e-05
11 *821:6 2.38682e-05
12 *1044:B *821:23 2.03526e-06
13 *180:12 *821:14 3.37093e-05
14 *186:18 *821:8 6.45149e-06
15 *186:18 *821:14 1.66659e-05
16 *186:18 *821:38 3.16603e-06
17 *187:8 *821:46 0
18 *278:14 *821:8 2.83874e-07
19 *278:25 *821:14 0
20 *280:8 *821:46 0
21 *775:14 *821:14 4.42421e-06
22 *775:20 *1048:B 1.04585e-07
23 *775:20 *821:8 5.67747e-07
24 *775:20 *821:38 8.06436e-06
25 *775:20 *821:46 0
26 *775:31 *1048:B 5.09299e-06
27 *775:39 *1048:B 8.60306e-07
28 *775:39 *821:8 1.00648e-06
*RES
1 *1611:Y *821:6 34.4 
2 *821:6 *821:8 7.88432 
3 *821:8 *821:14 38.4019 
4 *821:14 *1051:A 17.2 
5 *821:8 *821:23 20.9438 
6 *821:23 *1561:A 19.8741 
7 *821:23 *821:38 49.5168 
8 *821:38 *821:46 42.2276 
9 *821:46 *1046:A 17.2 
10 *821:6 *1048:B 41.9726 
*END

*D_NET *822 0.00105392
*CONN
*I *1008:A I *D AND2x2_ASAP7_75t_R
*I *883:B I *D AND2x2_ASAP7_75t_R
*I *1205:A I *D AND2x2_ASAP7_75t_R
*I *966:A I *D AND2x2_ASAP7_75t_R
*I *1240:A I *D AND2x2_ASAP7_75t_R
*I *1612:Y O *D BUFx4_ASAP7_75t_R
*CAP
1 *1008:A 0
2 *883:B 0
3 *1205:A 0
4 *966:A 0
5 *1240:A 0
6 *1612:Y 2.0392e-06
7 *822:126 1.18476e-05
8 *822:118 8.84838e-05
9 *822:105 1.61483e-05
10 *822:97 9.80555e-05
11 *822:89 6.36722e-05
12 *822:74 7.57068e-06
13 *822:56 6.30872e-05
14 *822:54 7.01417e-05
15 *822:46 7.22741e-05
16 *822:36 9.74394e-05
17 *822:28 5.4381e-05
18 *822:20 5.20465e-05
19 *822:10 9.58574e-05
20 *822:8 2.0392e-06
21 *822:8 *844:44 0
22 *822:20 *845:29 0
23 *822:20 *855:18 0
24 *822:28 *830:40 9.1854e-06
25 *822:28 *830:67 2.65931e-06
26 *822:28 *855:18 1.09859e-05
27 *822:36 *830:40 3.24457e-06
28 *822:36 *837:39 0
29 *822:36 *855:18 3.0362e-06
30 *822:46 *845:35 2.21705e-05
31 *822:46 *845:43 0
32 *822:56 *1176:A 1.04475e-06
33 *822:74 *830:48 0
34 *822:74 *837:18 0
35 *822:74 *837:39 0
36 *822:126 *837:87 0
37 *883:A *822:105 4.80731e-06
38 *6:9 *822:8 0
39 *211:6 *822:105 2.12481e-06
40 *349:44 *822:89 0
41 *350:27 *822:89 0
42 *350:39 *822:20 4.98688e-08
43 *408:10 *822:54 1.40966e-05
44 *418:8 *822:56 3.32794e-06
45 *420:14 *822:54 2.52755e-07
46 *420:14 *822:56 1.02506e-06
47 *444:20 *822:28 3.43171e-06
48 *508:14 *822:54 2.20493e-06
49 *544:8 *822:105 7.58265e-07
50 *703:36 *822:89 8.86236e-06
51 *703:55 *822:20 4.11976e-06
52 *703:55 *822:89 4.43976e-05
53 *703:59 *822:20 1.52298e-08
54 *703:59 *822:46 4.6245e-05
55 *703:180 *822:36 1.21804e-06
56 *704:36 *822:20 2.93198e-05
57 *704:36 *822:46 0
58 *704:105 *822:20 4.33e-06
59 *704:105 *822:36 0
60 *704:105 *822:89 0
61 *705:36 *822:36 4.31133e-06
62 *705:67 *822:46 2.05775e-06
63 *707:10 *822:126 1.59716e-06
64 *712:38 *822:54 1.22514e-06
65 *712:38 *822:56 6.7842e-07
66 *712:42 *822:56 1.37386e-05
67 *714:54 *822:36 3.54843e-08
68 *715:64 *822:46 0
69 *806:8 *822:74 3.05118e-08
70 *806:23 *822:74 3.89037e-06
71 *815:20 *822:56 1.52651e-06
72 *818:27 *822:126 9.51745e-07
73 *818:48 *822:97 1.76289e-07
74 *818:63 *822:97 8.81447e-07
75 *818:63 *822:118 4.8203e-06
*RES
1 *1612:Y *822:8 35.6202 
2 *822:8 *822:10 17.2 
3 *822:10 *822:20 39.3654 
4 *822:20 *822:28 33.1234 
5 *822:28 *822:36 39.0101 
6 *822:36 *822:46 43.6933 
7 *822:46 *822:54 41.3262 
8 *822:54 *822:56 40.6467 
9 *822:56 *1240:A 17.2 
10 *822:54 *966:A 17.2 
11 *822:28 *822:74 38.1916 
12 *822:74 *1205:A 17.2 
13 *822:10 *822:89 39.5084 
14 *822:89 *822:97 25.0954 
15 *822:97 *822:105 42.0381 
16 *822:105 *883:B 17.2 
17 *822:97 *822:118 49.4534 
18 *822:118 *822:126 38.8634 
19 *822:126 *1008:A 17.2 
*END

*D_NET *713 0.000929272
*CONN
*I *1276:A I *D AND2x2_ASAP7_75t_R
*I *1028:A I *D AND2x4_ASAP7_75t_R
*I *1027:B I *D AND2x4_ASAP7_75t_R
*I *1024:B I *D AND2x4_ASAP7_75t_R
*I *1599:A I *D BUFx3_ASAP7_75t_R
*I *1023:B I *D AND2x4_ASAP7_75t_R
*I *1014:B I *D AND2x2_ASAP7_75t_R
*I *1025:B I *D AND2x2_ASAP7_75t_R
*I *1026:B I *D AND2x4_ASAP7_75t_R
*I *932:Y O *D BUFx12f_ASAP7_75t_R
*CAP
1 *1276:A 0
2 *1028:A 3.40354e-05
3 *1027:B 0
4 *1024:B 2.81476e-05
5 *1599:A 0
6 *1023:B 0
7 *1014:B 9.15291e-06
8 *1025:B 0
9 *1026:B 3.22569e-06
10 *932:Y 4.03454e-05
11 *713:96 5.49095e-05
12 *713:83 3.63528e-05
13 *713:72 2.53633e-05
14 *713:63 2.05677e-05
15 *713:55 6.44513e-05
16 *713:49 4.00348e-05
17 *713:47 4.00411e-05
18 *713:43 4.78054e-05
19 *713:39 5.40089e-05
20 *713:33 5.15826e-05
21 *713:18 5.5109e-05
22 *713:12 9.73906e-06
23 *713:10 1.63134e-05
24 *713:6 5.66588e-05
25 *1028:A *1596:A 2.27303e-05
26 *713:18 *830:25 2.55346e-06
27 *713:33 *811:25 3.05118e-07
28 *713:33 *855:18 5.09108e-06
29 *713:39 *1596:A 0
30 *713:39 *806:8 0
31 *713:47 *856:8 0
32 *713:55 *845:70 0
33 *932:A *713:6 4.70139e-06
34 *1318:CI *713:33 2.17136e-05
35 *10:6 *713:47 0
36 *111:18 *713:72 0
37 *111:18 *713:83 0
38 *111:18 *713:96 0
39 *243:10 *713:47 0
40 *409:8 *713:55 1.36943e-05
41 *464:12 *713:47 1.93263e-05
42 *464:12 *713:55 0
43 *475:8 *1026:B 9.425e-07
44 *478:8 *713:10 4.7643e-07
45 *482:8 *713:72 1.17606e-06
46 *487:8 *713:47 0
47 *541:8 *713:55 0
48 *541:20 *713:63 1.08362e-06
49 *554:10 *713:63 5.52121e-06
50 *567:10 *1024:B 5.22376e-06
51 *699:75 *713:72 1.46457e-06
52 *699:75 *713:83 1.69466e-06
53 *699:75 *713:96 3.97272e-06
54 *700:50 *713:55 0
55 *700:62 *713:83 7.84037e-07
56 *700:62 *713:96 2.61419e-06
57 *700:66 *713:63 0
58 *701:35 *713:63 5.4219e-06
59 *702:12 *713:10 1.97413e-05
60 *702:12 *713:18 2.35908e-05
61 *702:12 *713:33 2.15285e-05
62 *702:27 *713:39 3.09589e-05
63 *702:27 *713:47 1.14653e-05
64 *702:50 *713:55 0
65 *702:63 *713:63 1.36241e-05
66 *703:146 *713:33 2.74079e-08
67 *705:61 *713:33 0
68 *705:121 *713:33 0
*RES
1 *932:Y *713:6 34.8492 
2 *713:6 *713:10 33.5318 
3 *713:10 *713:12 17.2 
4 *713:12 *713:18 26.6888 
5 *713:18 *1026:B 36.0045 
6 *713:18 *713:33 38.5266 
7 *713:33 *713:39 44.8186 
8 *713:39 *713:43 20.9438 
9 *713:43 *713:47 49.3005 
10 *713:47 *713:49 1.60448 
11 *713:49 *713:55 44.6906 
12 *713:55 *713:63 44.408 
13 *713:63 *1025:B 34.4 
14 *713:55 *713:72 4.97463 
15 *713:72 *1014:B 38.1438 
16 *713:72 *713:83 6.75799 
17 *713:83 *1023:B 34.4 
18 *713:83 *713:96 34.7679 
19 *713:96 *1599:A 17.2 
20 *713:96 *1024:B 35.384 
21 *713:49 *1027:B 17.2 
22 *713:39 *1028:A 32.7099 
23 *713:12 *1276:A 17.2 
*END

*D_NET *837 0.00134655
*CONN
*I *884:B I *D AND2x2_ASAP7_75t_R
*I *1009:A I *D AND2x2_ASAP7_75t_R
*I *1204:A I *D AND2x2_ASAP7_75t_R
*I *1194:A I *D AND2x2_ASAP7_75t_R
*I *1308:A I *D AND2x2_ASAP7_75t_R
*I *1627:Y O *D BUFx4_ASAP7_75t_R
*CAP
1 *884:B 2.9075e-05
2 *1009:A 1.75953e-05
3 *1204:A 0
4 *1194:A 5.50798e-06
5 *1308:A 2.28927e-06
6 *1627:Y 2.09812e-06
7 *837:87 0.000113449
8 *837:78 3.56886e-06
9 *837:70 5.19121e-05
10 *837:53 1.95055e-05
11 *837:45 0.000101437
12 *837:39 0.000107233
13 *837:18 5.30964e-05
14 *837:12 0.000108267
15 *837:10 9.56891e-05
16 *837:8 2.09812e-06
17 *837:12 *844:14 2.61631e-05
18 *837:12 *844:20 1.70149e-05
19 *837:18 *844:20 8.47689e-05
20 *837:39 *855:18 3.0362e-06
21 *1275:B *837:39 7.89181e-07
22 *1333:B *837:53 0
23 *1334:B *837:53 0
24 *1398:B *884:B 0
25 *5:16 *837:12 6.60541e-07
26 *5:16 *837:18 3.22506e-06
27 *59:8 *1009:A 4.11092e-06
28 *258:21 *837:70 2.43679e-06
29 *558:12 *837:87 0
30 *559:12 *884:B 3.55881e-05
31 *609:8 *1009:A 2.01542e-05
32 *620:8 *1009:A 9.95025e-07
33 *704:36 *837:45 0.000237687
34 *704:40 *837:45 0.000114704
35 *704:50 *837:45 2.99518e-06
36 *704:50 *837:53 6.85833e-07
37 *705:36 *837:39 2.10569e-07
38 *705:79 *1194:A 6.0212e-06
39 *707:6 *1009:A 6.39911e-06
40 *707:10 *884:B 0
41 *714:16 *837:70 0
42 *714:24 *837:12 2.56238e-05
43 *714:54 *837:39 2.21858e-06
44 *714:54 *837:45 3.23563e-05
45 *818:27 *1009:A 0
46 *822:36 *837:39 0
47 *822:74 *837:18 0
48 *822:74 *837:39 0
49 *822:126 *837:87 0
50 *830:36 *837:18 2.14037e-06
51 *830:36 *837:39 4.97876e-07
52 *830:40 *837:39 3.24457e-06
53 *830:73 *837:12 0
54 *830:73 *837:87 0
*RES
1 *1627:Y *837:8 35.6202 
2 *837:8 *837:10 17.2 
3 *837:10 *837:12 13.365 
4 *837:12 *837:18 35.734 
5 *837:18 *1308:A 35.4697 
6 *837:18 *837:39 49.2074 
7 *837:39 *837:45 47.6847 
8 *837:45 *837:53 34.7775 
9 *837:53 *1194:A 38.6786 
10 *837:12 *837:70 39.1298 
11 *837:70 *837:78 36.3144 
12 *837:78 *1204:A 17.2 
13 *837:10 *837:87 37.7616 
14 *837:87 *1009:A 49.6143 
15 *837:87 *884:B 49.0298 
*END

*D_NET *838 0.000466344
*CONN
*I *1573:A I *D BUFx3_ASAP7_75t_R
*I *1113:C I *D OR3x2_ASAP7_75t_R
*I *1090:D I *D OR4x2_ASAP7_75t_R
*I *1114:C I *D OR3x2_ASAP7_75t_R
*I *1148:B I *D OR2x2_ASAP7_75t_R
*I *1115:A I *D OR2x2_ASAP7_75t_R
*I *1628:Y O *D BUFx3_ASAP7_75t_R
*CAP
1 *1573:A 0
2 *1113:C 0
3 *1090:D 1.14749e-05
4 *1114:C 2.03733e-05
5 *1148:B 0
6 *1115:A 0
7 *1628:Y 0
8 *838:71 2.1481e-05
9 *838:38 3.18482e-05
10 *838:36 2.38867e-05
11 *838:32 5.79773e-05
12 *838:20 1.13471e-05
13 *838:12 2.13034e-05
14 *838:6 2.25658e-05
15 *1090:D *840:42 1.99235e-05
16 *1090:D *843:24 3.05118e-08
17 *1114:C *840:12 6.00889e-06
18 *1114:C *840:24 0
19 *1114:C *840:42 4.83862e-06
20 *838:12 *840:57 1.33627e-05
21 *838:20 *840:57 1.05912e-05
22 *838:32 *840:57 2.68933e-07
23 *838:32 *840:68 2.83874e-07
24 *838:36 *840:14 5.85387e-06
25 *838:36 *840:16 5.85387e-06
26 *1090:B *1090:D 3.90258e-06
27 *1116:C *838:12 6.97416e-06
28 *1116:C *838:32 2.0153e-05
29 *1572:A *1090:D 3.16603e-07
30 *185:12 *1090:D 3.68287e-06
31 *185:20 *1090:D 2.32002e-05
32 *188:12 *838:12 1.23408e-05
33 *188:12 *838:20 9.52454e-06
34 *189:8 *838:20 4.94291e-06
35 *290:18 *838:32 2.33787e-05
36 *290:18 *838:71 2.20663e-05
37 *295:25 *838:32 4.42421e-06
38 *295:25 *838:71 4.13496e-06
39 *310:10 *1114:C 1.22515e-05
40 *311:10 *838:12 2.35022e-05
41 *311:10 *838:20 0
42 *768:6 *838:71 2.27479e-06
*RES
1 *1628:Y *838:6 34.4 
2 *838:6 *838:12 31.0808 
3 *838:12 *838:20 46.0848 
4 *838:20 *1115:A 17.2 
5 *838:12 *1148:B 17.2 
6 *838:6 *838:32 14.0792 
7 *838:32 *838:36 30.5706 
8 *838:36 *838:38 17.2 
9 *838:38 *1114:C 49.7152 
10 *838:38 *1090:D 46.6763 
11 *838:36 *1113:C 17.2 
12 *838:32 *838:71 34.1763 
13 *838:71 *1573:A 17.2 
*END

*D_NET *839 7.6973e-05
*CONN
*I *880:B I *D AND2x2_ASAP7_75t_R
*I *997:A I *D AND2x2_ASAP7_75t_R
*I *1629:Y O *D BUFx3_ASAP7_75t_R
*CAP
1 *880:B 1.79118e-05
2 *997:A 1.57825e-05
3 *1629:Y 0
4 *839:6 3.36943e-05
5 *997:B *997:A 4.49469e-06
6 *567:14 *880:B 3.1923e-06
7 *707:38 *997:A 5.52807e-07
8 *707:49 *880:B 2.68933e-07
9 *707:49 *997:A 1.07573e-06
*RES
1 *1629:Y *839:6 34.4 
2 *839:6 *997:A 44.8167 
3 *839:6 *880:B 43.1272 
*END

*D_NET *840 0.000342872
*CONN
*I *1558:A I *D BUFx3_ASAP7_75t_R
*I *1148:A I *D OR2x2_ASAP7_75t_R
*I *1090:C I *D OR4x2_ASAP7_75t_R
*I *1113:A I *D OR3x2_ASAP7_75t_R
*I *1114:B I *D OR3x2_ASAP7_75t_R
*I *1630:Y O *D BUFx3_ASAP7_75t_R
*CAP
1 *1558:A 0
2 *1148:A 0
3 *1090:C 0
4 *1113:A 0
5 *1114:B 0
6 *1630:Y 0
7 *840:68 2.44023e-05
8 *840:57 2.45884e-05
9 *840:51 5.29347e-05
10 *840:42 1.05862e-05
11 *840:24 2.07345e-05
12 *840:16 2.77868e-05
13 *840:14 1.96695e-05
14 *840:12 1.93928e-05
15 *840:4 2.13058e-05
16 *1090:D *840:42 1.99235e-05
17 *1114:C *840:12 6.00889e-06
18 *1114:C *840:24 0
19 *1114:C *840:42 4.83862e-06
20 *1116:B *840:12 1.60115e-05
21 *1116:B *840:51 8.87763e-06
22 *184:14 *840:24 6.79293e-06
23 *185:20 *840:16 1.04475e-06
24 *189:8 *840:57 5.52807e-07
25 *237:8 *840:12 2.68933e-07
26 *237:8 *840:57 0
27 *290:18 *840:68 6.91154e-06
28 *309:8 *840:12 5.67735e-06
29 *309:8 *840:68 2.83874e-07
30 *310:10 *840:12 8.06436e-06
31 *310:10 *840:24 0
32 *838:12 *840:57 1.33627e-05
33 *838:20 *840:57 1.05912e-05
34 *838:32 *840:57 2.68933e-07
35 *838:32 *840:68 2.83874e-07
36 *838:36 *840:14 5.85387e-06
37 *838:36 *840:16 5.85387e-06
*RES
1 *1630:Y *840:4 17.2 
2 *840:4 *840:12 49.3504 
3 *840:12 *840:14 1.60448 
4 *840:14 *840:16 4.81343 
5 *840:16 *840:24 49.237 
6 *840:24 *1114:B 17.2 
7 *840:16 *1113:A 17.2 
8 *840:14 *840:42 43.8888 
9 *840:42 *1090:C 17.2 
10 *840:4 *840:51 19.8741 
11 *840:51 *840:57 36.0926 
12 *840:57 *1148:A 17.2 
13 *840:51 *840:68 37.389 
14 *840:68 *1558:A 17.2 
*END

*D_NET *841 9.31484e-05
*CONN
*I *980:A I *D AND2x2_ASAP7_75t_R
*I *879:B I *D AND2x2_ASAP7_75t_R
*I *1631:Y O *D BUFx3_ASAP7_75t_R
*CAP
1 *980:A 0
2 *879:B 0
3 *1631:Y 2.26947e-05
4 *841:21 1.53093e-05
5 *841:6 3.8004e-05
6 *102:12 *841:6 0
7 *707:64 *841:21 1.60115e-05
8 *716:69 *841:21 1.12894e-06
*RES
1 *1631:Y *841:6 27.8965 
2 *841:6 *879:B 17.2 
3 *841:6 *841:21 44.7884 
4 *841:21 *980:A 17.2 
*END

*D_NET *842 9.85049e-05
*CONN
*I *878:B I *D AND2x2_ASAP7_75t_R
*I *972:A I *D AND2x2_ASAP7_75t_R
*I *1632:Y O *D BUFx3_ASAP7_75t_R
*CAP
1 *878:B 2.91361e-06
2 *972:A 0
3 *1632:Y 5.1518e-06
4 *842:14 4.06836e-05
5 *842:8 4.8749e-05
6 *1189:A *842:14 0
7 *1391:CI *842:8 0
8 *1391:CI *842:14 0
9 *1632:A *842:8 0
10 *1632:A *842:14 0
11 *715:171 *842:14 0
12 *716:148 *842:14 1.00689e-06
13 *801:12 *842:14 0
*RES
1 *1632:Y *842:8 37.779 
2 *842:8 *842:14 42.9036 
3 *842:14 *972:A 17.2 
4 *842:8 *878:B 35.4697 
*END

*D_NET *843 0.000287786
*CONN
*I *1059:A1 I *D OA21x2_ASAP7_75t_R
*I *1559:A I *D BUFx6f_ASAP7_75t_R
*I *1090:A I *D OR4x2_ASAP7_75t_R
*I *1633:Y O *D BUFx3_ASAP7_75t_R
*CAP
1 *1059:A1 1.61065e-05
2 *1559:A 0
3 *1090:A 0
4 *1633:Y 0
5 *843:41 4.44001e-05
6 *843:24 4.04085e-05
7 *843:14 0.000117903
8 *843:6 4.92012e-05
9 *1090:D *843:24 3.05118e-08
10 *182:14 *843:41 0
11 *184:31 *1059:A1 2.17647e-06
12 *184:31 *843:14 6.72662e-07
13 *236:39 *843:24 1.40963e-05
14 *300:12 *843:24 2.22701e-06
15 *681:10 *1059:A1 5.63702e-07
16 *772:23 *843:41 0
*RES
1 *1633:Y *843:6 34.4 
2 *843:6 *843:14 39.5811 
3 *843:14 *843:24 46.3198 
4 *843:24 *1090:A 34.4 
5 *843:14 *843:41 42.6492 
6 *843:41 *1559:A 34.4 
7 *843:6 *1059:A1 45.55 
*END

*D_NET *844 0.000394228
*CONN
*I *1229:A I *D AND2x4_ASAP7_75t_R
*I *1308:B I *D AND2x2_ASAP7_75t_R
*I *1277:A I *D AND2x2_ASAP7_75t_R
*I *1634:Y O *D BUFx3_ASAP7_75t_R
*CAP
1 *1229:A 0
2 *1308:B 5.86289e-06
3 *1277:A 1.94177e-05
4 *1634:Y 3.69895e-06
5 *844:44 3.06413e-05
6 *844:20 5.50843e-05
7 *844:14 7.13562e-05
8 *844:10 1.46101e-05
9 *844:20 *855:18 6.32803e-07
10 *1316:CI *844:44 5.67747e-07
11 *5:22 *844:10 7.56095e-06
12 *244:8 *844:44 3.02396e-06
13 *349:56 *844:44 0
14 *350:39 *844:44 3.88327e-06
15 *489:8 *1277:A 1.45651e-06
16 *714:34 *844:44 0
17 *714:44 *844:44 0
18 *822:8 *844:44 0
19 *830:36 *1277:A 1.6259e-05
20 *830:36 *844:20 6.20986e-06
21 *830:40 *844:20 2.5353e-05
22 *830:67 *844:20 6.62913e-07
23 *837:12 *844:14 2.61631e-05
24 *837:12 *844:20 1.70149e-05
25 *837:18 *844:20 8.47689e-05
*RES
1 *1634:Y *844:10 36.6615 
2 *844:10 *844:14 22.1781 
3 *844:14 *844:20 37.8863 
4 *844:20 *1277:A 48.1107 
5 *844:20 *1308:B 36.5393 
6 *844:14 *844:44 40.9468 
7 *844:44 *1229:A 34.4 
*END

*D_NET *845 0.000625956
*CONN
*I *1027:A I *D AND2x4_ASAP7_75t_R
*I *1176:A I *D AND2x4_ASAP7_75t_R
*I *1229:B I *D AND2x4_ASAP7_75t_R
*I *1635:Y O *D BUFx6f_ASAP7_75t_R
*CAP
1 *1027:A 4.70556e-06
2 *1176:A 1.88071e-06
3 *1229:B 2.81721e-06
4 *1635:Y 1.82507e-05
5 *845:70 2.30186e-05
6 *845:51 2.98185e-05
7 *845:43 0.000111157
8 *845:35 0.00015863
9 *845:29 6.62144e-05
10 *845:10 2.12821e-05
11 *845:8 2.75993e-05
12 *1316:CI *1229:B 8.59534e-06
13 *1316:CI *845:10 2.08157e-05
14 *410:8 *845:8 1.43369e-05
15 *418:8 *1176:A 5.85387e-06
16 *464:12 *845:70 1.70708e-06
17 *488:32 *845:35 1.33387e-05
18 *696:43 *845:43 1.47675e-06
19 *696:49 *845:51 4.29957e-06
20 *703:55 *845:35 1.86056e-06
21 *703:59 *845:35 1.77681e-07
22 *703:78 *845:51 2.80888e-05
23 *711:25 *845:51 2.83188e-05
24 *713:55 *845:70 0
25 *714:64 *845:43 6.60661e-06
26 *714:64 *845:70 0
27 *715:64 *845:43 1.8902e-06
28 *715:76 *845:35 0
29 *822:20 *845:29 0
30 *822:46 *845:35 2.21705e-05
31 *822:46 *845:43 0
32 *822:56 *1176:A 1.04475e-06
*RES
1 *1635:Y *845:8 44.5617 
2 *845:8 *845:10 7.79046 
3 *845:10 *1229:B 37.3097 
4 *845:10 *845:29 43.5755 
5 *845:29 *845:35 31.9791 
6 *845:35 *845:43 44.5071 
7 *845:43 *845:51 47.6245 
8 *845:51 *1176:A 36.0045 
9 *845:35 *845:70 36.1437 
10 *845:70 *1027:A 36.0045 
*END

*D_NET *846 0.000205183
*CONN
*I *1087:C I *D AND3x1_ASAP7_75t_R
*I *1063:A I *D XNOR2x2_ASAP7_75t_R
*I *1636:Y O *D BUFx3_ASAP7_75t_R
*CAP
1 *1087:C 0
2 *1063:A 9.50293e-06
3 *1636:Y 0
4 *846:29 2.09591e-05
5 *846:14 2.05911e-05
6 *846:6 3.20472e-05
7 *1062:A *1063:A 1.58887e-05
8 *1062:A *846:14 3.94592e-06
9 *1555:A *846:14 5.63702e-07
10 *1555:A *846:29 4.71596e-06
11 *290:18 *846:14 5.43155e-06
12 *291:8 *846:29 2.97641e-06
13 *291:16 *1063:A 1.96132e-05
14 *291:16 *846:29 7.35063e-07
15 *295:25 *1063:A 2.01661e-05
16 *297:14 *1063:A 9.65855e-06
17 *298:8 *846:29 1.89933e-05
18 *765:8 *846:14 1.29643e-06
19 *765:8 *846:29 4.10981e-06
20 *782:46 *846:14 1.3988e-05
*RES
1 *1636:Y *846:6 34.4 
2 *846:6 *846:14 43.2123 
3 *846:14 *1063:A 48.4791 
4 *846:6 *846:29 33.1067 
5 *846:29 *1087:C 17.2 
*END

*D_NET *696 0.000426825
*CONN
*I *1273:A I *D AND2x4_ASAP7_75t_R
*I *1283:B I *D AND2x2_ASAP7_75t_R
*I *1621:A I *D BUFx3_ASAP7_75t_R
*I *1598:A I *D BUFx3_ASAP7_75t_R
*I *1446:Y O *D BUFx4f_ASAP7_75t_R
*CAP
1 *1273:A 0
2 *1283:B 0
3 *1621:A 0
4 *1598:A 0
5 *1446:Y 1.19857e-05
6 *696:55 3.90626e-05
7 *696:49 4.2067e-05
8 *696:43 0.000105095
9 *696:35 0.000116823
10 *696:23 2.44397e-05
11 *696:12 1.5787e-05
12 *696:8 1.80658e-05
13 *696:43 *706:38 1.64773e-05
14 *696:43 *706:61 3.0293e-07
15 *696:43 *709:30 0
16 *696:43 *710:74 9.31124e-06
17 *696:43 *789:20 0
18 *696:43 *845:43 1.47675e-06
19 *696:49 *845:51 4.29957e-06
20 *696:55 *1274:B 0
21 *696:55 *712:46 0
22 *696:55 *858:8 6.42451e-07
23 *25:8 *696:49 9.15354e-08
24 *25:8 *696:55 1.30444e-05
25 *40:6 *696:23 6.13555e-06
26 *40:6 *696:35 1.23321e-06
27 *371:20 *696:43 4.83924e-07
28 *658:27 *696:8 0
*RES
1 *1446:Y *696:8 42.2843 
2 *696:8 *696:12 19.8741 
3 *696:12 *1598:A 17.2 
4 *696:12 *696:23 24.4361 
5 *696:23 *696:35 45.384 
6 *696:35 *696:43 49.6357 
7 *696:43 *696:49 18.6687 
8 *696:49 *696:55 45.7231 
9 *696:55 *1621:A 17.2 
10 *696:49 *1283:B 34.4 
11 *696:23 *1273:A 34.4 
*END

*D_NET *714 0.00108683
*CONN
*I *1634:A I *D BUFx3_ASAP7_75t_R
*I *1645:A I *D BUFx3_ASAP7_75t_R
*I *1646:A I *D BUFx3_ASAP7_75t_R
*I *1235:B I *D AND2x2_ASAP7_75t_R
*I *1234:B I *D AND2x4_ASAP7_75t_R
*I *1597:A I *D BUFx12f_ASAP7_75t_R
*I *1232:B I *D AND2x2_ASAP7_75t_R
*I *930:Y O *D BUFx12f_ASAP7_75t_R
*CAP
1 *1634:A 0
2 *1645:A 0
3 *1646:A 0
4 *1235:B 2.80634e-05
5 *1234:B 0
6 *1597:A 5.19389e-06
7 *1232:B 4.25316e-06
8 *930:Y 2.16392e-06
9 *714:123 3.37073e-05
10 *714:110 1.91601e-05
11 *714:106 4.4897e-05
12 *714:93 4.63528e-05
13 *714:80 5.10101e-05
14 *714:78 5.38909e-05
15 *714:74 2.16077e-05
16 *714:64 8.57946e-05
17 *714:54 0.000114169
18 *714:44 5.03935e-05
19 *714:36 2.60608e-05
20 *714:34 3.2821e-05
21 *714:26 2.40832e-05
22 *714:24 1.07879e-05
23 *714:16 5.63246e-05
24 *714:8 4.77006e-05
25 *714:16 *837:70 0
26 *714:24 *806:29 0
27 *714:24 *837:12 2.56238e-05
28 *714:34 *806:23 1.91585e-06
29 *714:34 *844:44 0
30 *714:36 *855:10 9.08513e-06
31 *714:44 *806:8 0
32 *714:44 *844:44 0
33 *714:44 *855:18 1.68529e-05
34 *714:54 *822:36 3.54843e-08
35 *714:54 *837:39 2.21858e-06
36 *714:54 *837:45 3.23563e-05
37 *714:64 *715:64 1.62622e-05
38 *714:64 *845:43 6.60661e-06
39 *714:64 *845:70 0
40 *714:106 *807:10 1.42054e-05
41 *714:106 *807:33 4.15076e-06
42 *1232:A *1232:B 5.85387e-06
43 *1319:B *714:80 1.07373e-06
44 *1319:B *714:93 1.49407e-08
45 *1368:B *714:80 4.87068e-06
46 *5:16 *714:24 6.72565e-06
47 *13:10 *714:93 0
48 *14:10 *1235:B 0
49 *14:10 *714:110 7.86466e-06
50 *14:10 *714:123 1.04475e-06
51 *22:8 *714:80 1.64764e-06
52 *22:14 *714:78 3.59167e-06
53 *98:10 *714:80 2.41555e-05
54 *99:10 *714:80 1.11656e-05
55 *110:10 *714:80 0
56 *111:8 *714:80 2.66097e-05
57 *111:18 *714:106 2.71272e-05
58 *258:29 *714:8 0
59 *444:20 *714:44 3.25347e-05
60 *474:10 *714:80 8.07402e-06
61 *485:8 *1232:B 1.38016e-05
62 *502:8 *714:34 1.15318e-06
63 *554:10 *714:80 0
64 *699:71 *1235:B 2.6409e-06
65 *699:75 *714:123 1.52942e-06
66 *701:35 *714:74 7.3874e-07
67 *701:35 *714:80 0
68 *701:43 *714:80 4.76588e-06
69 *701:62 *714:80 4.33802e-06
70 *703:20 *714:16 7.26649e-07
71 *704:36 *714:54 2.72006e-06
72 *705:36 *714:44 3.64285e-06
73 *705:36 *714:54 6.7009e-07
*RES
1 *930:Y *714:8 35.8079 
2 *714:8 *714:16 43.8049 
3 *714:16 *714:24 36.1336 
4 *714:24 *714:26 17.2 
5 *714:26 *714:34 48.2241 
6 *714:34 *714:36 5.88308 
7 *714:36 *714:44 45.1622 
8 *714:44 *714:54 42.0537 
9 *714:54 *714:64 38.4168 
10 *714:64 *714:74 47.6687 
11 *714:74 *714:78 27.3617 
12 *714:78 *714:80 36.6058 
13 *714:80 *1232:B 38.1438 
14 *714:80 *714:93 22.8317 
15 *714:93 *1597:A 19.3393 
16 *714:93 *714:106 39.6946 
17 *714:106 *714:110 26.292 
18 *714:110 *1234:B 17.2 
19 *714:110 *714:123 38.8203 
20 *714:123 *1235:B 29.501 
21 *714:74 *1646:A 17.2 
22 *714:36 *1645:A 17.2 
23 *714:26 *1634:A 17.2 
*END

*D_NET *715 0.00130754
*CONN
*I *1302:B I *D AND2x4_ASAP7_75t_R
*I *1211:B I *D AND2x4_ASAP7_75t_R
*I *1619:A I *D BUFx6f_ASAP7_75t_R
*I *1208:B I *D AND2x2_ASAP7_75t_R
*I *1207:A I *D AND2x4_ASAP7_75t_R
*I *1206:B I *D AND2x4_ASAP7_75t_R
*I *1596:A I *D BUFx3_ASAP7_75t_R
*I *1290:B I *D AND2x4_ASAP7_75t_R
*I *928:Y O *D BUFx12f_ASAP7_75t_R
*CAP
1 *1302:B 0
2 *1211:B 0
3 *1619:A 0
4 *1208:B 1.77541e-06
5 *1207:A 0
6 *1206:B 0
7 *1596:A 1.72632e-05
8 *1290:B 0
9 *928:Y 1.23435e-06
10 *715:171 4.35972e-06
11 *715:163 5.47759e-05
12 *715:148 3.09939e-05
13 *715:101 2.40879e-05
14 *715:97 2.59465e-05
15 *715:82 5.27789e-05
16 *715:76 4.11532e-05
17 *715:64 9.71846e-05
18 *715:54 0.000106737
19 *715:42 4.46168e-05
20 *715:40 2.57925e-05
21 *715:38 2.72253e-05
22 *715:32 2.81404e-05
23 *715:30 3.68078e-05
24 *715:20 0.000136342
25 *715:18 8.98258e-05
26 *715:8 1.00326e-05
27 *715:8 *832:10 4.93044e-07
28 *715:64 *822:46 0
29 *715:64 *845:43 1.8902e-06
30 *715:76 *845:35 0
31 *715:171 *801:12 3.89037e-06
32 *715:171 *842:14 0
33 *983:A *715:82 1.28104e-05
34 *1028:A *1596:A 2.27303e-05
35 *1208:A *715:42 7.82298e-07
36 *1208:A *715:54 4.65695e-07
37 *1290:A *715:97 0
38 *1369:B *715:42 2.22736e-06
39 *10:6 *715:76 4.43863e-07
40 *10:6 *715:82 1.02359e-06
41 *28:14 *715:18 0
42 *28:30 *715:42 1.93482e-06
43 *78:20 *715:20 2.53636e-05
44 *110:10 *715:54 2.77387e-08
45 *110:18 *715:64 2.11834e-05
46 *112:8 *715:42 8.06799e-07
47 *113:32 *715:20 2.90859e-05
48 *113:32 *715:163 6.77392e-05
49 *114:10 *715:148 6.34696e-06
50 *115:28 *715:20 2.02837e-06
51 *115:28 *715:163 3.73683e-05
52 *242:14 *715:97 2.03526e-06
53 *242:14 *715:101 1.29637e-05
54 *243:10 *715:97 1.18575e-05
55 *243:10 *715:101 0
56 *406:6 *715:38 9.33789e-06
57 *407:6 *1208:B 5.41446e-06
58 *464:8 *715:82 3.65131e-06
59 *506:10 *715:171 3.05118e-08
60 *516:8 *715:42 2.22736e-06
61 *527:30 *715:20 0
62 *528:16 *715:42 4.93487e-05
63 *541:28 *715:64 0
64 *552:16 *715:32 6.36702e-07
65 *552:16 *715:38 1.42372e-05
66 *552:16 *715:148 4.4154e-06
67 *566:22 *715:163 0
68 *699:26 *715:20 0
69 *699:63 *715:171 0
70 *700:66 *715:54 1.99243e-05
71 *700:77 *715:42 4.20181e-05
72 *701:35 *715:76 3.05676e-07
73 *701:35 *715:82 2.46429e-06
74 *701:62 *715:54 2.9066e-08
75 *701:70 *715:64 0
76 *702:27 *1596:A 0
77 *702:27 *715:101 0
78 *702:31 *715:97 1.13476e-05
79 *702:63 *715:54 0
80 *702:96 *715:8 0
81 *703:180 *1596:A 7.69813e-07
82 *710:66 *715:20 1.12968e-06
83 *711:66 *715:18 1.41512e-06
84 *713:39 *1596:A 0
85 *714:64 *715:64 1.62622e-05
*RES
1 *928:Y *715:8 35.4325 
2 *715:8 *715:18 43.0529 
3 *715:18 *715:20 20.9079 
4 *715:20 *715:30 42.079 
5 *715:30 *715:32 1.03247 
6 *715:32 *715:38 37.5553 
7 *715:38 *715:40 17.2 
8 *715:40 *715:42 33.2268 
9 *715:42 *715:54 48.4742 
10 *715:54 *715:64 42.8172 
11 *715:64 *715:76 43.2921 
12 *715:76 *715:82 39.8044 
13 *715:82 *1290:B 17.2 
14 *715:82 *715:97 45.8297 
15 *715:97 *715:101 23.958 
16 *715:101 *1596:A 48.1107 
17 *715:101 *1206:B 34.4 
18 *715:76 *1207:A 34.4 
19 *715:42 *1208:B 36.0045 
20 *715:32 *1619:A 34.4 
21 *715:30 *715:148 37.8156 
22 *715:148 *1211:B 17.2 
23 *715:20 *715:163 42.8214 
24 *715:163 *715:171 37.253 
25 *715:171 *1302:B 17.2 
*END

*D_NET *848 0.000353503
*CONN
*I *1191:A I *D AND2x2_ASAP7_75t_R
*I *1201:A I *D AND2x4_ASAP7_75t_R
*I *1642:A I *D BUFx6f_ASAP7_75t_R
*I *1638:Y O *D BUFx6f_ASAP7_75t_R
*CAP
1 *1191:A 0
2 *1201:A 2.05045e-05
3 *1642:A 0
4 *1638:Y 1.02074e-05
5 *848:52 2.22709e-05
6 *848:33 5.35756e-05
7 *848:27 0.000103691
8 *848:23 5.36761e-05
9 *848:8 1.55348e-05
10 *848:8 *852:8 0
11 *51:38 *848:27 0
12 *366:12 *848:33 2.25802e-05
13 *377:8 *848:33 0
14 *388:10 *848:33 1.32322e-05
15 *421:16 *848:33 0
16 *421:16 *848:52 0
17 *799:65 *848:23 0
18 *804:23 *848:8 0
19 *813:56 *848:23 4.4717e-08
20 *813:56 *848:27 0
21 *816:8 *848:8 4.99728e-06
22 *816:55 *848:52 4.57952e-06
23 *816:63 *848:52 1.05206e-05
24 *817:82 *848:33 3.54192e-07
25 *817:88 *1201:A 1.77337e-05
26 *827:18 *848:23 0
*RES
1 *1638:Y *848:8 42.2843 
2 *848:8 *1642:A 34.4 
3 *848:8 *848:23 31.6745 
4 *848:23 *848:27 35.0479 
5 *848:27 *848:33 36.0983 
6 *848:33 *1201:A 48.8403 
7 *848:27 *848:52 48.5131 
8 *848:52 *1191:A 17.2 
*END

*D_NET *849 0.000196146
*CONN
*I *1246:A I *D AND2x4_ASAP7_75t_R
*I *1639:Y O *D BUFx3_ASAP7_75t_R
*CAP
1 *1246:A 3.9114e-06
2 *1639:Y 5.09366e-05
3 *849:10 2.40818e-05
4 *849:6 7.11069e-05
5 *849:10 *851:18 4.87068e-06
6 *1225:A *849:6 1.90814e-05
7 *1246:B *1246:A 2.03526e-06
8 *367:6 *849:6 0
9 *376:8 *849:10 9.8079e-06
10 *800:14 *849:6 4.20803e-06
11 *800:14 *849:10 0
12 *803:14 *849:6 6.10603e-06
13 *819:46 *849:10 0
*RES
1 *1639:Y *849:6 43.4064 
2 *849:6 *849:10 34.6581 
3 *849:10 *1246:A 36.0045 
*END

*D_NET *716 0.00118951
*CONN
*I *1299:A I *D AND2x2_ASAP7_75t_R
*I *877:A I *D AND2x2_ASAP7_75t_R
*I *878:A I *D AND2x2_ASAP7_75t_R
*I *879:A I *D AND2x2_ASAP7_75t_R
*I *880:A I *D AND2x2_ASAP7_75t_R
*I *881:A I *D AND2x2_ASAP7_75t_R
*I *882:A I *D AND2x2_ASAP7_75t_R
*I *1595:A I *D BUFx3_ASAP7_75t_R
*I *867:B I *D AND2x2_ASAP7_75t_R
*I *926:Y O *D BUFx2_ASAP7_75t_R
*CAP
1 *1299:A 9.8943e-07
2 *877:A 0
3 *878:A 2.00616e-06
4 *879:A 2.11982e-06
5 *880:A 0
6 *881:A 1.68604e-06
7 *882:A 0
8 *1595:A 7.1476e-06
9 *867:B 2.02616e-06
10 *926:Y 2.86149e-05
11 *716:167 9.3202e-06
12 *716:148 2.80542e-05
13 *716:101 1.21235e-05
14 *716:97 7.16655e-05
15 *716:91 7.45411e-05
16 *716:87 5.88332e-05
17 *716:81 5.89095e-05
18 *716:69 4.15874e-05
19 *716:63 6.76836e-05
20 *716:53 0.000116064
21 *716:51 0.0001238
22 *716:36 3.25182e-05
23 *716:30 9.34801e-05
24 *716:26 2.74641e-05
25 *716:18 2.89228e-05
26 *716:16 4.78522e-05
27 *716:10 6.76923e-05
28 *867:B *828:12 3.46317e-06
29 *881:A *1006:A 1.44167e-06
30 *1595:A *794:21 2.22736e-06
31 *716:18 *820:8 2.1664e-06
32 *716:26 *969:A 1.09067e-06
33 *716:26 *1299:B 2.90209e-08
34 *716:30 *969:A 1.15945e-06
35 *716:36 *828:12 0
36 *716:36 *828:36 0
37 *716:53 *833:45 1.32451e-05
38 *716:63 *833:45 4.99415e-06
39 *716:69 *841:21 1.12894e-06
40 *716:148 *833:34 1.24672e-08
41 *716:148 *842:14 1.00689e-06
42 *990:A *1299:A 4.05232e-06
43 *990:A *716:26 2.37269e-06
44 *1316:CI *716:97 0
45 *1373:B *716:30 0
46 *1373:B *716:36 2.25526e-05
47 *1394:B *716:10 3.66776e-06
48 *6:9 *716:97 0
49 *113:40 *716:148 1.38386e-06
50 *119:24 *716:51 2.4147e-05
51 *119:32 *716:36 0
52 *120:10 *716:30 2.68933e-07
53 *211:12 *1595:A 0
54 *444:36 *716:97 0
55 *514:8 *716:36 2.9059e-07
56 *540:32 *716:63 1.09897e-05
57 *540:32 *716:148 0
58 *541:40 *716:69 7.16544e-06
59 *566:34 *716:53 1.54132e-05
60 *567:14 *716:69 1.35684e-06
61 *567:14 *716:81 1.35684e-06
62 *580:38 *716:63 1.4909e-06
63 *589:12 *716:18 2.66436e-05
64 *589:12 *716:26 1.1338e-05
65 *604:8 *716:69 1.09067e-06
66 *605:8 *716:69 2.70427e-06
67 *616:10 *716:69 0
68 *635:18 *716:167 0
69 *707:20 *1595:A 0
70 *707:20 *716:101 0
71 *707:32 *716:97 0
72 *707:38 *716:91 6.78894e-06
73 *707:38 *716:97 2.08489e-06
74 *707:49 *716:69 3.61067e-06
75 *707:49 *716:81 5.79724e-07
76 *707:64 *716:69 1.09067e-06
*RES
1 *926:Y *716:10 48.7854 
2 *716:10 *716:16 49.7671 
3 *716:16 *716:18 9.29224 
4 *716:18 *716:26 46.3645 
5 *716:26 *716:30 22.1746 
6 *716:30 *716:36 35.2646 
7 *716:36 *867:B 35.4697 
8 *716:30 *716:51 34.1362 
9 *716:51 *716:53 22.3362 
10 *716:53 *716:63 42.5948 
11 *716:63 *716:69 44.1753 
12 *716:69 *716:81 48.926 
13 *716:81 *716:87 32.8785 
14 *716:87 *716:91 22.7378 
15 *716:91 *716:97 49.4235 
16 *716:97 *716:101 21.6115 
17 *716:101 *1595:A 40.0317 
18 *716:101 *882:A 34.4 
19 *716:91 *881:A 35.4697 
20 *716:69 *880:A 17.2 
21 *716:63 *879:A 35.4697 
22 *716:53 *716:148 39.177 
23 *716:148 *878:A 35.4697 
24 *716:51 *716:167 49.8838 
25 *716:167 *877:A 17.2 
26 *716:18 *1299:A 35.4697 
*END

*D_NET *850 0.000159574
*CONN
*I *1560:A I *D BUFx3_ASAP7_75t_R
*I *1640:Y O *D BUFx3_ASAP7_75t_R
*CAP
1 *1560:A 4.98483e-06
2 *1640:Y 0
3 *850:8 4.69459e-05
4 *850:6 4.19611e-05
5 *20:10 *850:8 0
6 *470:10 *850:8 0
7 *481:10 *850:8 0
8 *697:85 *850:8 0
9 *827:76 *850:8 1.10561e-06
10 *828:12 *850:8 5.22244e-06
11 *828:36 *850:8 5.93543e-05
*RES
1 *1640:Y *850:6 34.4 
2 *850:6 *850:8 38.2953 
3 *850:8 *1560:A 37.0741 
*END

*D_NET *851 0.000171185
*CONN
*I *1227:B I *D AND2x4_ASAP7_75t_R
*I *1226:A I *D AND2x4_ASAP7_75t_R
*I *1641:Y O *D BUFx6f_ASAP7_75t_R
*CAP
1 *1227:B 0
2 *1226:A 0
3 *1641:Y 2.96913e-05
4 *851:18 2.28711e-05
5 *851:14 4.07772e-05
6 *851:8 4.75974e-05
7 *851:18 *1226:B 2.98814e-06
8 *1244:A *851:18 3.96761e-06
9 *375:6 *851:14 2.79435e-06
10 *800:14 *851:14 1.4845e-05
11 *800:14 *851:18 0
12 *835:69 *851:18 7.82377e-07
13 *849:10 *851:18 4.87068e-06
*RES
1 *1641:Y *851:8 45.6313 
2 *851:8 *851:14 31.3605 
3 *851:14 *851:18 36.9108 
4 *851:18 *1226:A 34.4 
5 *851:14 *1227:B 17.2 
*END

*D_NET *852 0.000410429
*CONN
*I *1226:B I *D AND2x4_ASAP7_75t_R
*I *1247:A I *D AND2x4_ASAP7_75t_R
*I *1642:Y O *D BUFx6f_ASAP7_75t_R
*CAP
1 *1226:B 1.5108e-05
2 *1247:A 0
3 *1642:Y 2.28365e-06
4 *852:36 2.92378e-05
5 *852:30 4.43458e-05
6 *852:28 9.78127e-05
7 *852:18 0.000110199
8 *852:8 1.46701e-05
9 *1244:A *1226:B 4.29278e-06
10 *1244:A *852:36 3.02328e-05
11 *198:8 *1226:B 5.52264e-06
12 *198:8 *852:36 3.52473e-06
13 *199:12 *852:36 2.71662e-05
14 *353:10 *1226:B 0
15 *364:10 *852:36 0
16 *402:14 *852:18 0
17 *697:28 *852:28 0
18 *710:143 *852:28 2.16343e-06
19 *799:65 *852:18 1.49606e-07
20 *802:21 *852:8 0
21 *813:56 *852:18 1.35892e-06
22 *834:37 *852:36 1.8783e-05
23 *835:44 *852:28 0
24 *835:54 *852:28 0
25 *835:69 *852:28 5.89245e-07
26 *848:8 *852:8 0
27 *851:18 *1226:B 2.98814e-06
*RES
1 *1642:Y *852:8 36.3711 
2 *852:8 *852:18 44.8282 
3 *852:18 *852:28 47.4398 
4 *852:28 *852:30 17.2 
5 *852:30 *852:36 41.648 
6 *852:36 *1247:A 17.2 
7 *852:30 *1226:B 47.1739 
*END

*D_NET *717 0.000133535
*CONN
*I *924:A I *D BUFx2_ASAP7_75t_R
*I *1248:Y O *D AND2x4_ASAP7_75t_R
*CAP
1 *924:A 3.41134e-05
2 *1248:Y 0
3 *717:10 6.33473e-05
4 *717:6 2.92338e-05
5 *717:10 *746:8 2.83874e-07
6 *717:10 *799:34 0
7 *717:10 *832:71 1.84899e-06
8 *199:12 *717:10 4.10928e-06
9 *379:8 *717:10 0
10 *583:27 *717:10 5.98744e-07
*RES
1 *1248:Y *717:6 34.4 
2 *717:6 *717:10 38.6003 
3 *717:10 *924:A 33.7796 
*END

*D_NET *853 2.12014e-05
*CONN
*I *1028:B I *D AND2x4_ASAP7_75t_R
*I *1643:Y O *D BUFx3_ASAP7_75t_R
*CAP
1 *1028:B 4.2274e-06
2 *1643:Y 6.37331e-06
3 *853:8 1.06007e-05
4 *806:8 *853:8 0
*RES
1 *1643:Y *853:8 38.9053 
2 *853:8 *1028:B 36.5393 
*END

*D_NET *854 0.000622003
*CONN
*I *1237:B I *D AND2x2_ASAP7_75t_R
*I *1236:A I *D AND2x4_ASAP7_75t_R
*I *1644:Y O *D BUFx6f_ASAP7_75t_R
*CAP
1 *1237:B 0
2 *1236:A 0
3 *1644:Y 1.39644e-06
4 *854:69 8.3289e-06
5 *854:59 8.31485e-05
6 *854:42 1.3676e-06
7 *854:36 1.71786e-05
8 *854:24 0.000227082
9 *854:20 0.0001531
10 *854:8 1.80451e-05
11 *85:30 *854:59 0
12 *113:32 *854:20 1.96191e-06
13 *117:26 *854:24 0
14 *118:14 *854:36 0
15 *482:28 *854:24 1.98069e-05
16 *524:18 *854:36 1.04046e-07
17 *524:26 *854:36 2.36855e-05
18 *536:18 *854:36 2.07514e-06
19 *536:26 *854:36 2.30716e-05
20 *540:16 *854:20 9.28791e-06
21 *541:28 *854:20 0
22 *566:22 *854:20 2.50916e-06
23 *580:28 *854:20 5.44723e-07
24 *580:28 *854:24 7.23345e-06
25 *695:32 *854:59 3.30133e-06
26 *695:46 *854:59 0
27 *697:47 *854:42 5.31312e-06
28 *697:66 *854:36 6.01258e-08
29 *698:26 *854:24 0
30 *698:55 *854:8 3.04043e-06
31 *698:61 *854:20 1.37851e-06
32 *807:14 *854:20 0
33 *809:36 *854:59 0
34 *809:59 *854:69 2.20028e-06
35 *812:21 *854:42 0
36 *835:16 *854:59 1.40537e-06
37 *836:25 *854:69 5.37605e-06
*RES
1 *1644:Y *854:8 35.4325 
2 *854:8 *854:20 46.0572 
3 *854:20 *854:24 41.4252 
4 *854:24 *854:36 38.0298 
5 *854:36 *854:42 36.1834 
6 *854:42 *1236:A 17.2 
7 *854:24 *854:59 49.7069 
8 *854:59 *854:69 37.8773 
9 *854:69 *1237:B 17.2 
*END

*D_NET *718 3.83143e-05
*CONN
*I *922:A I *D BUFx3_ASAP7_75t_R
*I *1045:Y O *D XOR2x2_ASAP7_75t_R
*CAP
1 *922:A 1.91572e-05
2 *1045:Y 1.91572e-05
*RES
1 *1045:Y *922:A 46.701 
*END

*D_NET *855 0.000206487
*CONN
*I *1231:A I *D AND2x4_ASAP7_75t_R
*I *1645:Y O *D BUFx3_ASAP7_75t_R
*CAP
1 *1231:A 2.04097e-05
2 *1645:Y 6.9135e-06
3 *855:18 5.13563e-05
4 *855:10 3.786e-05
5 *702:21 *1231:A 1.59435e-05
6 *705:36 *855:18 4.17004e-06
7 *713:33 *855:18 5.09108e-06
8 *714:36 *855:10 9.08513e-06
9 *714:44 *855:18 1.68529e-05
10 *822:20 *855:18 0
11 *822:28 *855:18 1.09859e-05
12 *822:36 *855:18 3.0362e-06
13 *830:40 *855:18 2.01307e-05
14 *830:67 *855:18 9.83163e-07
15 *837:39 *855:18 3.0362e-06
16 *844:20 *855:18 6.32803e-07
*RES
1 *1645:Y *855:10 37.9189 
2 *855:10 *855:18 49.9625 
3 *855:18 *1231:A 45.6313 
*END

*D_NET *856 3.5588e-05
*CONN
*I *1230:B I *D AND2x4_ASAP7_75t_R
*I *1646:Y O *D BUFx3_ASAP7_75t_R
*CAP
1 *1230:B 1.19029e-05
2 *1646:Y 5.89106e-06
3 *856:8 1.7794e-05
4 *701:35 *856:8 0
5 *713:47 *856:8 0
*RES
1 *1646:Y *856:8 38.9053 
2 *856:8 *1230:B 40.8179 
*END

*D_NET *857 7.66346e-05
*CONN
*I *1637:A I *D BUFx3_ASAP7_75t_R
*I *1041:A1 I *D OA21x2_ASAP7_75t_R
*I *1647:Y O *D BUFx3_ASAP7_75t_R
*CAP
1 *1637:A 7.76455e-06
2 *1041:A1 0
3 *1647:Y 8.80139e-06
4 *857:14 1.4032e-05
5 *857:6 3.05979e-05
6 *1041:A2 *857:14 4.10928e-06
7 *276:12 *1637:A 5.19552e-07
8 *276:12 *857:6 2.52755e-06
9 *276:20 *1637:A 3.56177e-06
10 *276:20 *857:14 3.61852e-06
11 *278:8 *857:14 5.22376e-07
12 *278:14 *857:14 5.79724e-07
*RES
1 *1647:Y *857:6 23.0831 
2 *857:6 *857:14 44.4803 
3 *857:14 *1041:A1 17.2 
4 *857:6 *1637:A 22.0134 
*END

*D_NET *847 5.81199e-05
*CONN
*I *1039:B I *D XOR2x2_ASAP7_75t_R
*I *1637:Y O *D BUFx3_ASAP7_75t_R
*CAP
1 *1039:B 0
2 *1637:Y 0
3 *847:10 2.7069e-05
4 *847:6 2.7069e-05
5 *1041:B *847:10 2.35518e-06
6 *1048:C *847:10 1.62681e-06
7 *278:14 *847:10 0
8 *738:10 *847:10 0
9 *771:19 *847:10 0
*RES
1 *1637:Y *847:6 34.4 
2 *847:6 *847:10 38.6003 
3 *847:10 *1039:B 17.2 
*END

*D_NET *767 0.000119064
*CONN
*I *1576:A I *D BUFx3_ASAP7_75t_R
*I *1557:Y O *D BUFx3_ASAP7_75t_R
*CAP
1 *1576:A 0
2 *1557:Y 2.95045e-06
3 *767:14 3.98538e-05
4 *767:8 4.28043e-05
5 *949:A *767:14 9.81516e-06
6 *174:14 *767:14 0
7 *675:23 *767:14 0
8 *692:17 *767:14 2.36401e-05
*RES
1 *1557:Y *767:8 36.0045 
2 *767:8 *767:14 45.8895 
3 *767:14 *1576:A 17.2 
*END

*D_NET *858 9.09907e-05
*CONN
*I *935:B I *D AND2x2_ASAP7_75t_R
*I *1274:A I *D AND2x2_ASAP7_75t_R
*I *1648:Y O *D BUFx3_ASAP7_75t_R
*CAP
1 *935:B 0
2 *1274:A 0
3 *1648:Y 4.10701e-06
4 *858:27 9.70971e-06
5 *858:12 3.13364e-05
6 *858:8 2.57337e-05
7 *1274:B *858:8 0
8 *1274:B *858:12 5.94108e-06
9 *408:8 *858:27 3.89037e-06
10 *408:10 *858:27 1.9076e-06
11 *696:55 *858:8 6.42451e-07
12 *712:38 *858:8 0
13 *712:38 *858:27 7.7223e-06
*RES
1 *1648:Y *858:8 37.2158 
2 *858:8 *858:12 31.1054 
3 *858:12 *1274:A 17.2 
4 *858:12 *858:27 42.2276 
5 *858:27 *935:B 17.2 
*END

*D_NET *719 0.000124014
*CONN
*I *912:A I *D BUFx3_ASAP7_75t_R
*I *1050:Y O *D XOR2x2_ASAP7_75t_R
*CAP
1 *912:A 0
2 *1050:Y 5.5616e-05
3 *719:12 6.39105e-06
4 *719:6 6.2007e-05
5 *719:6 *720:6 0
6 *265:8 *719:12 0
*RES
1 *1050:Y *719:6 41.2671 
2 *719:6 *719:12 39.4685 
3 *719:12 *912:A 17.2 
*END

*D_NET *720 0.000105005
*CONN
*I *886:A I *D BUFx3_ASAP7_75t_R
*I *1054:Y O *D XOR2x2_ASAP7_75t_R
*CAP
1 *886:A 0
2 *1054:Y 4.68777e-05
3 *720:12 4.34718e-06
4 *720:6 5.12249e-05
5 *720:6 *1050:A 7.58265e-07
6 *720:6 *1050:B 1.79737e-06
7 *719:6 *720:6 0
*RES
1 *1054:Y *720:6 39.1278 
2 *720:6 *720:12 37.2158 
3 *720:12 *886:A 17.2 
*END

*D_NET *721 9.75986e-05
*CONN
*I *885:A I *D BUFx3_ASAP7_75t_R
*I *1058:Y O *D XOR2x2_ASAP7_75t_R
*CAP
1 *885:A 0
2 *1058:Y 4.15533e-05
3 *721:12 7.24605e-06
4 *721:6 4.87993e-05
*RES
1 *1058:Y *721:6 33.7796 
2 *721:6 *721:12 38.9053 
3 *721:12 *885:A 17.2 
*END

*D_NET *722 0.000284777
*CONN
*I *876:A I *D BUFx3_ASAP7_75t_R
*I *1063:Y O *D XNOR2x2_ASAP7_75t_R
*CAP
1 *876:A 0
2 *1063:Y 8.22197e-06
3 *722:36 4.83941e-06
4 *722:26 9.04504e-05
5 *722:20 9.75735e-05
6 *722:10 2.01845e-05
7 *722:10 *783:10 2.19482e-06
8 *722:26 *724:28 5.60549e-05
9 *722:36 *724:28 0
10 *291:22 *722:20 0
11 *297:14 *722:10 5.25794e-06
12 *300:12 *722:20 0
*RES
1 *1063:Y *722:10 38.9885 
2 *722:10 *722:20 44.3745 
3 *722:20 *722:26 38.5236 
4 *722:26 *722:36 47.8851 
5 *722:36 *876:A 17.2 
*END

*D_NET *723 0.000164125
*CONN
*I *866:A I *D BUFx3_ASAP7_75t_R
*I *1067:Y O *D XOR2x2_ASAP7_75t_R
*CAP
1 *866:A 0
2 *1067:Y 0
3 *723:6 7.79061e-05
4 *723:4 7.79061e-05
5 *723:6 *1124:A 1.46238e-06
6 *302:30 *723:6 6.85081e-06
*RES
1 *1067:Y *723:4 17.2 
2 *723:4 *723:6 39.0422 
3 *723:6 *866:A 17.2 
*END

*D_NET *697 0.000491067
*CONN
*I *1594:A I *D BUFx6f_ASAP7_75t_R
*I *1618:A I *D BUFx3_ASAP7_75t_R
*I *1212:A I *D AND2x4_ASAP7_75t_R
*I *1236:B I *D AND2x4_ASAP7_75t_R
*I *938:B I *D AND2x4_ASAP7_75t_R
*I *1445:Y O *D BUFx12f_ASAP7_75t_R
*CAP
1 *1594:A 3.06755e-06
2 *1618:A 0
3 *1212:A 0
4 *1236:B 0
5 *938:B 0
6 *1445:Y 3.25977e-06
7 *697:85 3.76677e-05
8 *697:70 2.49981e-05
9 *697:66 8.74653e-05
10 *697:51 2.74684e-05
11 *697:47 4.15031e-05
12 *697:36 4.29633e-05
13 *697:28 7.92371e-05
14 *697:18 8.80494e-05
15 *697:8 1.92688e-05
16 *1594:A *817:46 0
17 *697:8 *817:46 0
18 *697:18 *798:54 0
19 *697:18 *834:61 3.74016e-08
20 *697:28 *817:70 1.46593e-06
21 *697:28 *852:28 0
22 *697:36 *812:21 4.34249e-06
23 *697:47 *812:21 0
24 *697:47 *854:42 5.31312e-06
25 *697:66 *854:36 6.01258e-08
26 *697:70 *829:20 6.46504e-06
27 *697:85 *809:36 0
28 *697:85 *850:8 0
29 *1330:B *697:36 1.49407e-08
30 *1330:CI *697:47 2.1664e-06
31 *20:10 *697:85 2.98814e-08
32 *51:20 *697:28 0
33 *85:22 *697:28 0
34 *107:10 *697:70 6.71184e-06
35 *415:10 *697:70 5.63292e-06
36 *436:8 *697:36 2.90209e-08
37 *436:8 *697:47 3.16328e-06
38 *492:8 *697:47 0
39 *503:8 *697:70 0
40 *515:8 *697:70 0
41 *695:46 *697:85 6.85833e-07
42 *695:54 *697:70 0
*RES
1 *1445:Y *697:8 36.5588 
2 *697:8 *697:18 45.2818 
3 *697:18 *697:28 41.8329 
4 *697:28 *697:36 36.8776 
5 *697:36 *938:B 17.2 
6 *697:36 *697:47 44.285 
7 *697:47 *697:51 18.2696 
8 *697:51 *1236:B 17.2 
9 *697:51 *697:66 45.3503 
10 *697:66 *697:70 40.0082 
11 *697:70 *1212:A 34.4 
12 *697:66 *697:85 49.5318 
13 *697:85 *1618:A 17.2 
14 *697:8 *1594:A 36.1834 
*END

*D_NET *724 0.000280786
*CONN
*I *1532:A I *D BUFx3_ASAP7_75t_R
*I *1089:Y O *D XOR2x2_ASAP7_75t_R
*CAP
1 *1532:A 0
2 *1089:Y 1.34823e-05
3 *724:34 1.18706e-06
4 *724:28 7.40311e-05
5 *724:18 8.58484e-05
6 *724:8 2.64867e-05
7 *724:8 *768:25 2.36954e-05
8 *283:20 *724:8 0
9 *722:26 *724:28 5.60549e-05
10 *722:36 *724:28 0
*RES
1 *1089:Y *724:8 46.6958 
2 *724:8 *724:18 45.4797 
3 *724:18 *724:28 48.6117 
4 *724:28 *724:34 35.057 
5 *724:34 *1532:A 17.2 
*END

*D_NET *725 8.62917e-05
*CONN
*I *1533:A I *D BUFx3_ASAP7_75t_R
*I *1098:Y O *D XOR2x2_ASAP7_75t_R
*CAP
1 *1533:A 0
2 *1098:Y 4.31459e-05
3 *725:6 4.31459e-05
*RES
1 *1098:Y *725:6 43.4064 
2 *725:6 *1533:A 17.2 
*END

*D_NET *726 2.20616e-05
*CONN
*I *1534:A I *D BUFx3_ASAP7_75t_R
*I *1119:Y O *D XOR2x2_ASAP7_75t_R
*CAP
1 *1534:A 6.10701e-06
2 *1119:Y 3.29539e-06
3 *726:8 9.4024e-06
4 *726:8 *823:20 3.25683e-06
*RES
1 *1119:Y *726:8 37.2158 
2 *726:8 *1534:A 37.0741 
*END

*D_NET *727 3.66847e-05
*CONN
*I *1535:A I *D BUFx3_ASAP7_75t_R
*I *1131:Y O *D OR3x1_ASAP7_75t_R
*CAP
1 *1535:A 1.83424e-05
2 *1131:Y 1.83424e-05
*RES
1 *1131:Y *1535:A 43.492 
*END

*D_NET *728 5.13877e-05
*CONN
*I *1536:A I *D BUFx3_ASAP7_75t_R
*I *892:Y O *D INVx1_ASAP7_75t_R
*CAP
1 *1536:A 2.43413e-05
2 *892:Y 2.43413e-05
3 *199:12 *1536:A 2.70503e-06
*RES
1 *892:Y *1536:A 47.7706 
*END

*D_NET *729 9.15769e-05
*CONN
*I *1537:A I *D BUFx3_ASAP7_75t_R
*I *1143:Y O *D XOR2x2_ASAP7_75t_R
*CAP
1 *1537:A 0
2 *1143:Y 4.57884e-05
3 *729:6 4.57884e-05
*RES
1 *1143:Y *729:6 42.3368 
2 *729:6 *1537:A 17.2 
*END

*D_NET *730 9.47022e-05
*CONN
*I *1538:A I *D BUFx3_ASAP7_75t_R
*I *1157:Y O *D AO32x1_ASAP7_75t_R
*CAP
1 *1538:A 6.54036e-06
2 *1157:Y 4.32546e-06
3 *730:14 3.69451e-05
4 *730:8 3.47302e-05
5 *1538:A *1157:B2 1.67815e-06
6 *730:14 *792:27 0
7 *730:14 *793:16 0
8 *1183:A2 *730:14 5.97163e-06
9 *192:42 *730:8 5.52807e-07
10 *339:8 *730:8 3.95845e-06
11 *346:12 *1538:A 0
*RES
1 *1157:Y *730:8 37.779 
2 *730:8 *730:14 46.701 
3 *730:14 *1538:A 38.9053 
*END

*D_NET *731 3.3067e-05
*CONN
*I *1539:A I *D BUFx3_ASAP7_75t_R
*I *1186:Y O *D AOI21x1_ASAP7_75t_R
*CAP
1 *1539:A 4.44357e-06
2 *1186:Y 4.33459e-06
3 *731:8 8.77816e-06
4 *1539:A *823:20 1.02586e-05
5 *731:8 *823:20 3.26939e-06
6 *731:8 *823:28 1.98264e-06
7 *347:10 *731:8 0
*RES
1 *1186:Y *731:8 38.3422 
2 *731:8 *1539:A 37.0741 
*END

*D_NET *732 5.31939e-05
*CONN
*I *1540:A I *D BUFx3_ASAP7_75t_R
*I *890:Y O *D INVx1_ASAP7_75t_R
*CAP
1 *1540:A 2.50298e-05
2 *890:Y 2.50298e-05
3 *890:A *1540:A 3.13426e-06
*RES
1 *890:Y *1540:A 47.7706 
*END

*D_NET *733 0.000142246
*CONN
*I *1541:A I *D BUFx3_ASAP7_75t_R
*I *1293:Y O *D INVx1_ASAP7_75t_R
*CAP
1 *1541:A 0
2 *1293:Y 1.32276e-05
3 *733:30 3.31043e-05
4 *733:20 3.98097e-05
5 *733:10 1.9933e-05
6 *733:30 *817:123 0
7 *1293:A *733:10 1.59615e-06
8 *274:17 *733:20 4.35916e-06
9 *387:10 *733:10 9.58671e-06
10 *519:14 *733:10 2.06293e-05
*RES
1 *1293:Y *733:10 45.1833 
2 *733:10 *733:20 43.5662 
3 *733:20 *733:30 48.5695 
4 *733:30 *1541:A 17.2 
*END

*D_NET *698 0.00110827
*CONN
*I *1617:A I *D BUFx12f_ASAP7_75t_R
*I *1235:A I *D AND2x2_ASAP7_75t_R
*I *1211:A I *D AND2x4_ASAP7_75t_R
*I *1444:Y O *D BUFx12f_ASAP7_75t_R
*CAP
1 *1617:A 0
2 *1235:A 1.29328e-05
3 *1211:A 0
4 *1444:Y 1.808e-05
5 *698:90 3.96282e-06
6 *698:82 3.47517e-05
7 *698:61 4.06101e-05
8 *698:55 5.8682e-05
9 *698:44 4.0785e-05
10 *698:38 3.24183e-05
11 *698:26 0.000149704
12 *698:24 0.000275174
13 *698:18 0.000123533
14 *698:8 2.42939e-05
15 *1235:A *1631:A 0
16 *1235:A *699:67 0
17 *698:26 *809:24 5.91418e-05
18 *698:26 *854:24 0
19 *698:44 *829:10 2.76231e-07
20 *698:55 *807:33 0
21 *698:55 *829:10 0
22 *698:55 *854:8 3.04043e-06
23 *698:61 *807:14 0
24 *698:61 *854:20 1.37851e-06
25 *698:82 *827:12 6.38246e-06
26 *698:82 *835:22 1.7971e-05
27 *1034:A *698:8 1.5259e-05
28 *1320:A *1235:A 1.79289e-07
29 *1321:A *698:55 6.25154e-05
30 *1356:CI *698:90 1.4374e-06
31 *1365:A *698:55 0
32 *14:8 *1235:A 0
33 *38:10 *698:90 0
34 *85:30 *698:82 2.52958e-07
35 *103:8 *698:55 2.891e-06
36 *114:10 *698:55 1.6731e-05
37 *114:16 *698:44 0
38 *117:8 *698:44 1.01707e-05
39 *117:16 *698:38 2.01569e-05
40 *117:26 *698:26 2.15494e-05
41 *482:28 *698:26 0
42 *483:8 *1235:A 0
43 *493:30 *698:26 7.12022e-07
44 *493:40 *698:38 5.84462e-07
45 *530:17 *698:24 0
46 *540:16 *698:61 2.07003e-06
47 *552:12 *698:38 1.06042e-05
48 *566:22 *698:38 4.77132e-06
49 *695:32 *698:82 0
50 *695:46 *698:26 3.52673e-05
*RES
1 *1444:Y *698:8 48.0098 
2 *698:8 *698:18 42.3829 
3 *698:18 *698:24 39.7016 
4 *698:24 *698:26 42.8325 
5 *698:26 *698:38 43.7465 
6 *698:38 *698:44 41.6273 
7 *698:44 *1211:A 17.2 
8 *698:44 *698:55 47.4498 
9 *698:55 *698:61 45.8712 
10 *698:61 *1235:A 43.88 
11 *698:24 *698:82 39.94 
12 *698:82 *698:90 36.5021 
13 *698:90 *1617:A 17.2 
*END

*D_NET *734 6.02407e-05
*CONN
*I *1542:A I *D BUFx3_ASAP7_75t_R
*I *874:Y O *D INVx1_ASAP7_75t_R
*CAP
1 *1542:A 0
2 *874:Y 3.01204e-05
3 *734:6 3.01204e-05
*RES
1 *874:Y *734:6 33.7796 
2 *734:6 *1542:A 17.2 
*END

*D_NET *735 4.94049e-05
*CONN
*I *1543:A I *D BUFx3_ASAP7_75t_R
*I *872:Y O *D INVx1_ASAP7_75t_R
*CAP
1 *1543:A 2.47025e-05
2 *872:Y 2.47025e-05
*RES
1 *872:Y *1543:A 47.7706 
*END

*D_NET *736 5.12904e-05
*CONN
*I *1544:A I *D BUFx2_ASAP7_75t_R
*I *949:Y O *D INVx1_ASAP7_75t_R
*CAP
1 *1544:A 0
2 *949:Y 2.50808e-05
3 *736:10 2.50808e-05
4 *736:10 *737:8 0
5 *736:10 *754:8 1.12894e-06
*RES
1 *949:Y *736:10 46.9277 
2 *736:10 *1544:A 34.4 
*END

*D_NET *737 1.29154e-05
*CONN
*I *1545:A I *D BUFx2_ASAP7_75t_R
*I *1220:Y O *D INVx1_ASAP7_75t_R
*CAP
1 *1545:A 0
2 *1220:Y 6.18128e-06
3 *737:8 6.18128e-06
4 *737:8 *754:8 5.52807e-07
5 *736:10 *737:8 0
*RES
1 *1220:Y *737:8 38.9053 
2 *737:8 *1545:A 34.4 
*END

*D_NET *738 8.50659e-05
*CONN
*I *1546:A I *D BUFx3_ASAP7_75t_R
*I *1039:Y O *D XOR2x2_ASAP7_75t_R
*CAP
1 *1546:A 1.00488e-05
2 *1039:Y 0
3 *738:10 4.25329e-05
4 *738:6 3.24842e-05
5 *738:10 *739:10 0
6 *738:10 *756:8 0
7 *738:10 *847:10 0
*RES
1 *1039:Y *738:6 34.4 
2 *738:6 *738:10 44.232 
3 *738:10 *1546:A 23.0831 
*END

*D_NET *739 9.26801e-05
*CONN
*I *1547:A I *D BUFx3_ASAP7_75t_R
*I *1042:Y O *D XOR2x2_ASAP7_75t_R
*CAP
1 *1547:A 2.00438e-05
2 *1042:Y 0
3 *739:10 4.63401e-05
4 *739:6 2.62962e-05
5 *738:10 *739:10 0
*RES
1 *1042:Y *739:6 34.4 
2 *739:6 *739:10 38.6003 
3 *739:10 *1547:A 29.501 
*END

*D_NET *699 0.00118209
*CONN
*I *1592:A I *D BUFx4f_ASAP7_75t_R
*I *1591:A I *D BUFx6f_ASAP7_75t_R
*I *1234:A I *D AND2x4_ASAP7_75t_R
*I *1014:A I *D AND2x2_ASAP7_75t_R
*I *956:A I *D AND2x4_ASAP7_75t_R
*I *1443:Y O *D BUFx12f_ASAP7_75t_R
*CAP
1 *1592:A 2.57566e-05
2 *1591:A 2.585e-06
3 *1234:A 0
4 *1014:A 7.03823e-06
5 *956:A 0
6 *1443:Y 9.28217e-06
7 *699:110 3.98898e-05
8 *699:104 6.86921e-05
9 *699:75 4.49093e-05
10 *699:71 4.18033e-05
11 *699:67 2.11906e-05
12 *699:63 3.89161e-05
13 *699:57 5.49108e-05
14 *699:51 5.75424e-05
15 *699:47 5.34063e-05
16 *699:38 3.12412e-05
17 *699:34 7.09644e-05
18 *699:26 8.96564e-05
19 *699:20 8.63949e-05
20 *699:10 1.77169e-05
21 *699:10 *709:96 1.81898e-06
22 *699:10 *832:10 1.88168e-06
23 *699:10 *832:18 1.02407e-06
24 *699:20 *709:16 6.02235e-07
25 *699:20 *709:24 8.59161e-07
26 *699:20 *832:33 0
27 *699:26 *706:22 2.81517e-06
28 *699:26 *715:20 0
29 *699:34 *812:10 1.62114e-05
30 *699:51 *829:10 7.39242e-05
31 *699:63 *715:171 0
32 *699:71 *1235:B 2.6409e-06
33 *699:75 *700:50 1.39346e-06
34 *699:75 *700:62 5.49402e-06
35 *699:75 *713:72 1.46457e-06
36 *699:75 *713:83 1.69466e-06
37 *699:75 *713:96 3.97272e-06
38 *699:75 *714:123 1.52942e-06
39 *699:104 *812:10 1.14117e-05
40 *699:104 *812:21 2.25884e-05
41 *699:110 *799:18 4.19041e-05
42 *699:110 *813:29 5.60551e-07
43 *1235:A *699:67 0
44 *1289:A *699:51 1.49407e-08
45 *1321:A *699:67 0
46 *1321:CI *699:67 2.31481e-05
47 *1321:CI *699:75 3.01803e-06
48 *1371:B *699:51 2.80709e-06
49 *14:10 *699:71 5.09299e-06
50 *15:14 *699:63 3.48165e-06
51 *16:8 *699:67 2.51335e-06
52 *17:12 *699:63 3.67134e-05
53 *17:12 *699:67 1.61558e-05
54 *17:18 *699:63 0
55 *33:10 *699:104 3.18899e-06
56 *103:16 *1591:A 5.22376e-07
57 *111:18 *699:75 0
58 *115:38 *699:57 1.32761e-06
59 *371:36 *699:26 2.16086e-06
60 *416:28 *699:26 3.67986e-05
61 *426:14 *699:47 1.47642e-06
62 *482:8 *699:75 2.48762e-06
63 *483:8 *699:67 1.09842e-06
64 *506:10 *699:63 0
65 *527:30 *699:26 6.25428e-05
66 *537:10 *699:34 3.38221e-06
67 *551:10 *699:51 0
68 *552:12 *699:34 0
69 *552:12 *699:57 1.8468e-05
*RES
1 *1443:Y *699:10 39.8705 
2 *699:10 *699:20 43.1634 
3 *699:20 *699:26 40.2685 
4 *699:26 *699:34 36.6194 
5 *699:34 *699:38 18.8045 
6 *699:38 *956:A 17.2 
7 *699:38 *699:47 28.4313 
8 *699:47 *699:51 42.4486 
9 *699:51 *699:57 31.19 
10 *699:57 *699:63 35.0796 
11 *699:63 *699:67 33.5318 
12 *699:67 *699:71 20.9438 
13 *699:71 *699:75 44.232 
14 *699:75 *1014:A 38.1438 
15 *699:71 *1234:A 17.2 
16 *699:57 *1591:A 35.4697 
17 *699:34 *699:104 41.8902 
18 *699:104 *699:110 48.9485 
19 *699:110 *1592:A 29.501 
*END

*D_NET *700 0.00111579
*CONN
*I *1581:A I *D BUFx6f_ASAP7_75t_R
*I *1023:A I *D AND2x4_ASAP7_75t_R
*I *1589:A I *D BUFx6f_ASAP7_75t_R
*I *962:A I *D AND2x2_ASAP7_75t_R
*I *1208:A I *D AND2x2_ASAP7_75t_R
*I *1442:Y O *D BUFx12f_ASAP7_75t_R
*CAP
1 *1581:A 0
2 *1023:A 0
3 *1589:A 0
4 *962:A 0
5 *1208:A 1.56291e-06
6 *1442:Y 3.90579e-06
7 *700:91 1.83646e-05
8 *700:81 4.22013e-05
9 *700:77 5.79741e-05
10 *700:66 9.06241e-05
11 *700:62 5.88946e-05
12 *700:54 9.90404e-06
13 *700:50 3.37986e-05
14 *700:44 3.10897e-05
15 *700:36 2.02055e-05
16 *700:24 0.000117383
17 *700:20 0.000109654
18 *700:8 1.31576e-05
19 *1208:A *715:42 7.82298e-07
20 *1208:A *715:54 4.65695e-07
21 *700:8 *806:29 0
22 *700:20 *705:22 0
23 *700:24 *705:24 0.000113136
24 *700:24 *705:57 5.68174e-05
25 *700:50 *713:55 0
26 *700:54 *1587:A 5.94108e-06
27 *700:62 *1587:A 2.20493e-06
28 *700:62 *713:83 7.84037e-07
29 *700:62 *713:96 2.61419e-06
30 *700:66 *701:62 6.99936e-06
31 *700:66 *702:63 0
32 *700:66 *713:63 0
33 *700:66 *715:54 1.99243e-05
34 *700:66 *807:14 0
35 *700:77 *715:42 4.20181e-05
36 *700:91 *712:94 0
37 *700:91 *712:109 7.39755e-06
38 *1353:CI *700:91 5.52807e-07
39 *1363:A *700:77 3.85445e-05
40 *13:10 *1208:A 4.03043e-07
41 *13:10 *700:77 1.89667e-07
42 *100:10 *700:77 0
43 *110:18 *700:36 3.28632e-06
44 *114:6 *700:77 7.71949e-06
45 *115:8 *700:77 1.4374e-06
46 *362:29 *700:8 0
47 *444:26 *700:24 0.000188967
48 *482:20 *700:66 0
49 *507:10 *700:77 0
50 *699:75 *700:50 1.39346e-06
51 *699:75 *700:62 5.49402e-06
*RES
1 *1442:Y *700:8 36.9342 
2 *700:8 *700:20 43.0006 
3 *700:20 *700:24 46.2289 
4 *700:24 *700:36 36.3398 
5 *700:36 *700:44 36.3144 
6 *700:44 *700:50 33.8683 
7 *700:50 *700:54 22.0134 
8 *700:54 *700:62 37.9756 
9 *700:62 *700:66 38.4109 
10 *700:66 *1208:A 35.2447 
11 *700:66 *700:77 38.0137 
12 *700:77 *700:81 28.9662 
13 *700:81 *700:91 44.7034 
14 *700:91 *962:A 17.2 
15 *700:81 *1589:A 17.2 
16 *700:54 *1023:A 17.2 
17 *700:44 *1581:A 17.2 
*END

*D_NET *701 0.00109208
*CONN
*I *1587:A I *D BUFx6f_ASAP7_75t_R
*I *1588:A I *D BUFx6f_ASAP7_75t_R
*I *927:A I *D AND2x2_ASAP7_75t_R
*I *963:A I *D AND2x4_ASAP7_75t_R
*I *1232:A I *D AND2x2_ASAP7_75t_R
*I *1207:B I *D AND2x4_ASAP7_75t_R
*I *1272:Y O *D BUFx12f_ASAP7_75t_R
*CAP
1 *1587:A 4.31362e-05
2 *1588:A 0
3 *927:A 2.63315e-06
4 *963:A 1.1584e-05
5 *1232:A 1.22123e-06
6 *1207:B 3.55562e-06
7 *1272:Y 6.90642e-06
8 *701:118 3.44367e-05
9 *701:103 4.98723e-05
10 *701:84 2.38519e-05
11 *701:78 3.77476e-05
12 *701:70 9.19422e-05
13 *701:62 0.000108121
14 *701:43 4.55984e-05
15 *701:37 5.86572e-05
16 *701:35 5.67262e-05
17 *701:24 7.05284e-05
18 *701:20 6.75498e-05
19 *701:14 5.91032e-05
20 *701:8 8.70652e-06
21 *927:A *710:48 7.35354e-06
22 *963:A *712:63 5.09995e-06
23 *963:A *712:84 1.16088e-06
24 *1232:A *1232:B 5.85387e-06
25 *701:8 *702:12 1.84381e-05
26 *701:8 *830:8 2.56604e-07
27 *701:20 *703:63 7.56287e-05
28 *701:20 *703:161 1.47556e-05
29 *701:20 *705:61 6.73285e-07
30 *701:24 *703:161 2.68255e-06
31 *701:35 *702:50 2.12131e-05
32 *701:35 *702:63 5.60551e-07
33 *701:35 *703:161 1.47127e-05
34 *701:35 *713:63 5.4219e-06
35 *701:35 *714:74 7.3874e-07
36 *701:35 *714:80 0
37 *701:35 *715:76 3.05676e-07
38 *701:35 *715:82 2.46429e-06
39 *701:35 *856:8 0
40 *701:43 *714:80 4.76588e-06
41 *701:62 *702:63 0
42 *701:62 *714:80 4.33802e-06
43 *701:62 *715:54 2.9066e-08
44 *701:70 *712:94 1.78061e-05
45 *701:70 *715:64 0
46 *701:78 *712:84 3.84734e-08
47 *701:78 *712:94 4.84362e-06
48 *701:103 *702:86 0
49 *701:103 *711:85 2.48419e-06
50 *701:103 *712:94 6.90157e-06
51 *701:118 *702:86 0
52 *701:118 *702:96 0
53 *701:118 *710:44 8.6539e-06
54 *701:118 *711:74 1.70708e-06
55 *1318:B *701:24 5.67747e-07
56 *1319:B *701:43 1.57563e-06
57 *1319:B *701:62 9.52884e-07
58 *1327:B *963:A 6.80947e-07
59 *1327:CI *963:A 0
60 *10:6 *701:24 0
61 *22:8 *701:35 0
62 *22:14 *701:35 3.95845e-06
63 *28:22 *701:70 0
64 *43:36 *701:70 5.88662e-06
65 *78:20 *701:70 0
66 *98:10 *701:35 0
67 *98:18 *701:35 1.12894e-06
68 *111:18 *701:35 5.43508e-07
69 *113:20 *701:70 1.00474e-06
70 *115:20 *701:70 2.61829e-06
71 *260:29 *701:14 0
72 *417:20 *701:70 1.39449e-05
73 *427:10 *701:118 2.02257e-05
74 *439:10 *963:A 4.0157e-06
75 *474:10 *701:35 0
76 *485:8 *701:43 1.59615e-06
77 *487:8 *701:35 0
78 *527:22 *701:70 6.81873e-07
79 *554:10 *701:35 6.79111e-06
80 *700:54 *1587:A 5.94108e-06
81 *700:62 *1587:A 2.20493e-06
82 *700:66 *701:62 6.99936e-06
*RES
1 *1272:Y *701:8 40.8764 
2 *701:8 *701:14 29.5952 
3 *701:14 *701:20 35.3808 
4 *701:20 *701:24 24.2396 
5 *701:24 *1207:B 36.0045 
6 *701:24 *701:35 48.9954 
7 *701:35 *701:37 17.2 
8 *701:37 *701:43 27.9815 
9 *701:43 *1232:A 36.0045 
10 *701:43 *701:62 43.6161 
11 *701:62 *701:70 48.7975 
12 *701:70 *701:78 36.012 
13 *701:78 *701:84 40.2831 
14 *701:84 *963:A 44.537 
15 *701:78 *701:103 43.4527 
16 *701:103 *927:A 36.5393 
17 *701:103 *701:118 40.9627 
18 *701:118 *1588:A 17.2 
19 *701:37 *1587:A 43.9412 
*END

*D_NET *702 0.00123522
*CONN
*I *1585:A I *D BUFx3_ASAP7_75t_R
*I *929:A I *D AND2x4_ASAP7_75t_R
*I *1178:A I *D AND2x2_ASAP7_75t_R
*I *1586:A I *D BUFx6f_ASAP7_75t_R
*I *964:A I *D AND2x2_ASAP7_75t_R
*I *1025:A I *D AND2x2_ASAP7_75t_R
*I *1290:A I *D AND2x4_ASAP7_75t_R
*I *1231:B I *D AND2x4_ASAP7_75t_R
*I *1238:Y O *D BUFx6f_ASAP7_75t_R
*CAP
1 *1585:A 6.59917e-06
2 *929:A 0
3 *1178:A 0
4 *1586:A 3.38281e-05
5 *964:A 1.35125e-05
6 *1025:A 0
7 *1290:A 4.50981e-06
8 *1231:B 0
9 *1238:Y 0
10 *702:96 4.39124e-05
11 *702:88 1.00843e-05
12 *702:86 2.31995e-05
13 *702:82 5.58137e-05
14 *702:80 6.5241e-05
15 *702:65 4.61393e-05
16 *702:63 7.71824e-05
17 *702:50 9.39885e-05
18 *702:48 5.18394e-05
19 *702:44 6.29924e-05
20 *702:31 3.6298e-05
21 *702:27 4.33581e-05
22 *702:21 4.55579e-05
23 *702:12 4.05719e-05
24 *702:6 2.79437e-05
25 *1290:A *715:97 0
26 *702:12 *713:10 1.97413e-05
27 *702:12 *713:18 2.35908e-05
28 *702:12 *713:33 2.15285e-05
29 *702:12 *811:10 6.33206e-07
30 *702:12 *811:14 3.90258e-06
31 *702:12 *830:8 4.0993e-06
32 *702:21 *1231:A 1.59435e-05
33 *702:21 *1275:B 1.44167e-06
34 *702:21 *811:14 6.01799e-05
35 *702:27 *1596:A 0
36 *702:27 *713:39 3.09589e-05
37 *702:27 *713:47 1.14653e-05
38 *702:27 *715:101 0
39 *702:31 *715:97 1.13476e-05
40 *702:50 *713:55 0
41 *702:63 *712:52 0
42 *702:63 *713:63 1.36241e-05
43 *702:63 *715:54 0
44 *702:80 *712:63 0
45 *702:86 *710:56 2.90439e-06
46 *702:86 *711:64 0
47 *702:96 *710:48 5.41446e-06
48 *702:96 *715:8 0
49 *947:A *964:A 2.66797e-07
50 *985:A *702:48 7.86466e-06
51 *1160:A *702:48 1.07377e-06
52 *1316:A *702:44 0
53 *1327:CI *702:86 4.61755e-05
54 *1351:A *964:A 4.93044e-07
55 *1351:A *702:80 1.65842e-06
56 *1397:CI *964:A 1.08938e-05
57 *26:6 *964:A 4.48222e-07
58 *26:6 *702:80 7.32095e-07
59 *27:10 *964:A 5.79724e-07
60 *29:8 *702:86 6.65157e-06
61 *77:14 *702:80 9.94685e-06
62 *77:14 *702:82 0
63 *110:10 *702:63 1.41679e-06
64 *168:8 *964:A 8.51183e-06
65 *169:8 *702:80 8.29921e-06
66 *242:8 *702:27 1.99018e-05
67 *242:14 *702:31 1.12144e-06
68 *243:10 *702:27 1.12894e-06
69 *243:10 *702:31 6.04134e-06
70 *243:10 *702:44 2.57989e-05
71 *260:29 *702:12 0
72 *428:8 *702:82 0
73 *444:8 *702:27 0
74 *454:6 *1585:A 3.81627e-06
75 *463:18 *702:63 0
76 *464:12 *702:44 0
77 *476:8 *702:44 2.06684e-05
78 *498:8 *702:44 1.09067e-06
79 *509:8 *702:44 0
80 *528:8 *702:80 1.07573e-06
81 *700:66 *702:63 0
82 *701:8 *702:12 1.84381e-05
83 *701:35 *702:50 2.12131e-05
84 *701:35 *702:63 5.60551e-07
85 *701:62 *702:63 0
86 *701:103 *702:86 0
87 *701:118 *702:86 0
88 *701:118 *702:96 0
*RES
1 *1238:Y *702:6 34.4 
2 *702:6 *702:12 49.2438 
3 *702:12 *1231:B 17.2 
4 *702:12 *702:21 35.384 
5 *702:21 *702:27 43.9202 
6 *702:27 *702:31 26.2107 
7 *702:31 *1290:A 36.0045 
8 *702:31 *702:44 40.853 
9 *702:44 *702:48 39.1278 
10 *702:48 *702:50 16.3318 
11 *702:50 *1025:A 34.4 
12 *702:50 *702:63 48.5338 
13 *702:63 *702:65 17.2 
14 *702:65 *964:A 46.6108 
15 *702:65 *702:80 46.0153 
16 *702:80 *702:82 12.301 
17 *702:82 *702:86 41.9793 
18 *702:86 *702:88 17.2 
19 *702:88 *702:96 40.5098 
20 *702:96 *1586:A 32.7099 
21 *702:88 *1178:A 17.2 
22 *702:82 *929:A 17.2 
23 *702:44 *1585:A 22.0134 
*END

*D_NET *703 0.00147567
*CONN
*I *1206:A I *D AND2x4_ASAP7_75t_R
*I *1230:A I *D AND2x4_ASAP7_75t_R
*I *1026:A I *D AND2x4_ASAP7_75t_R
*I *1177:A I *D AND2x4_ASAP7_75t_R
*I *1579:A I *D BUFx3_ASAP7_75t_R
*I *1196:A I *D AND2x2_ASAP7_75t_R
*I *931:A I *D AND2x2_ASAP7_75t_R
*I *965:A I *D AND2x2_ASAP7_75t_R
*I *1584:A I *D BUFx3_ASAP7_75t_R
*I *1228:Y O *D BUFx12f_ASAP7_75t_R
*CAP
1 *1206:A 0
2 *1230:A 0
3 *1026:A 0
4 *1177:A 0
5 *1579:A 0
6 *1196:A 0
7 *931:A 0
8 *965:A 2.08916e-06
9 *1584:A 0
10 *1228:Y 1.86538e-06
11 *703:180 5.11414e-06
12 *703:161 2.59082e-05
13 *703:146 1.56843e-05
14 *703:128 1.05671e-06
15 *703:117 3.30437e-06
16 *703:109 3.93115e-05
17 *703:99 6.5218e-05
18 *703:91 4.92043e-05
19 *703:78 6.71619e-05
20 *703:67 0.000131191
21 *703:63 0.000120678
22 *703:59 7.46317e-05
23 *703:55 7.93525e-05
24 *703:44 7.22033e-06
25 *703:36 2.75435e-05
26 *703:24 0.000131541
27 *703:20 8.29128e-05
28 *703:8 2.1078e-05
29 *703:20 *704:24 5.61032e-06
30 *703:20 *714:16 7.26649e-07
31 *703:24 *704:24 0
32 *703:36 *822:89 8.86236e-06
33 *703:36 *830:73 4.86221e-07
34 *703:44 *707:20 1.23746e-06
35 *703:55 *704:24 0
36 *703:55 *704:30 1.20197e-05
37 *703:55 *822:20 4.11976e-06
38 *703:55 *822:89 4.43976e-05
39 *703:55 *830:67 0
40 *703:55 *845:35 1.86056e-06
41 *703:59 *704:36 0
42 *703:59 *705:57 0.000106135
43 *703:59 *822:20 1.52298e-08
44 *703:59 *822:46 4.6245e-05
45 *703:59 *845:35 1.77681e-07
46 *703:63 *705:57 8.95226e-06
47 *703:78 *705:67 2.38961e-06
48 *703:78 *705:73 3.05118e-08
49 *703:78 *710:101 0
50 *703:78 *711:25 1.63871e-05
51 *703:78 *711:37 1.1508e-05
52 *703:78 *815:20 9.62742e-06
53 *703:78 *845:51 2.80888e-05
54 *703:91 *711:14 1.43369e-05
55 *703:91 *711:25 2.20493e-06
56 *703:99 *706:61 0
57 *703:99 *710:84 5.22379e-06
58 *703:99 *710:90 8.53502e-07
59 *703:99 *789:20 0
60 *703:109 *704:67 1.19943e-06
61 *703:109 *706:61 0
62 *703:128 *709:44 4.03399e-07
63 *703:146 *713:33 2.74079e-08
64 *703:180 *1596:A 7.69813e-07
65 *703:180 *822:36 1.21804e-06
66 *1326:A *703:91 1.49407e-08
67 *1326:A *703:99 0
68 *1333:B *703:117 1.4374e-06
69 *25:8 *703:78 0
70 *349:44 *703:36 2.20405e-06
71 *350:27 *703:24 1.7845e-05
72 *350:27 *703:36 9.56982e-06
73 *385:10 *703:117 0
74 *385:10 *703:128 0
75 *419:10 *703:78 6.38002e-06
76 *441:8 *965:A 1.1211e-07
77 *441:8 *703:78 9.68114e-06
78 *444:20 *703:180 0
79 *488:32 *703:55 3.34628e-05
80 *701:20 *703:63 7.56287e-05
81 *701:20 *703:161 1.47556e-05
82 *701:24 *703:161 2.68255e-06
83 *701:35 *703:161 1.47127e-05
*RES
1 *1228:Y *703:8 35.4325 
2 *703:8 *703:20 46.2722 
3 *703:20 *703:24 23.8119 
4 *703:24 *703:36 37.8915 
5 *703:36 *703:44 38.2943 
6 *703:44 *1584:A 17.2 
7 *703:24 *703:55 24.9652 
8 *703:55 *703:59 24.7249 
9 *703:59 *703:63 25.0954 
10 *703:63 *703:67 45.6075 
11 *703:67 *965:A 35.6202 
12 *703:67 *703:78 47.2121 
13 *703:78 *931:A 34.4 
14 *703:78 *703:91 33.3865 
15 *703:91 *703:99 45.9805 
16 *703:99 *703:109 40.1578 
17 *703:109 *703:117 36.5021 
18 *703:117 *1196:A 17.2 
19 *703:99 *703:128 35.2447 
20 *703:128 *1579:A 17.2 
21 *703:91 *1177:A 17.2 
22 *703:63 *703:146 39.2455 
23 *703:146 *1026:A 17.2 
24 *703:59 *703:161 42.9989 
25 *703:161 *1230:A 34.4 
26 *703:55 *703:180 42.88 
27 *703:180 *1206:A 34.4 
*END

*D_NET *267 0.000380984
*CONN
*P result[0] O
*I *924:Y O *D BUFx2_ASAP7_75t_R
*CAP
1 result[0] 6.53361e-06
2 *924:Y 6.1582e-06
3 *267:20 9.07562e-05
4 *267:16 0.000113681
5 *267:8 3.56168e-05
6 result[0] *348:13 2.57981e-06
7 *267:16 *834:31 0
8 *267:20 *275:21 4.4768e-05
9 *267:20 *348:13 8.08897e-05
*RES
1 *924:Y *267:8 37.8729 
2 *267:8 *267:16 39.0164 
3 *267:16 *267:20 42.4016 
4 *267:20 result[0] 26.0798 
*END

*D_NET *266 0.000419647
*CONN
*P result[10] O
*I *922:Y O *D BUFx3_ASAP7_75t_R
*CAP
1 result[10] 5.44124e-06
2 *922:Y 1.18706e-06
3 *266:20 0.000189292
4 *266:18 0.000203195
5 *266:8 2.05317e-05
*RES
1 *922:Y *266:8 35.057 
2 *266:8 *266:18 49.6106 
3 *266:18 *266:20 43.7166 
4 *266:20 result[10] 25.214 
*END

*D_NET *265 0.000551445
*CONN
*P result[11] O
*I *912:Y O *D BUFx3_ASAP7_75t_R
*CAP
1 result[11] 2.16708e-06
2 *912:Y 1.65142e-06
3 *265:24 9.39659e-05
4 *265:18 0.000110246
5 *265:8 2.00985e-05
6 *265:8 *719:12 0
7 result[12] result[11] 1.66433e-06
8 result[12] *265:24 5.60862e-06
9 *264:20 *265:24 0.000316043
*RES
1 *912:Y *265:8 35.4325 
2 *265:8 *265:18 48.7678 
3 *265:18 *265:24 44.5297 
4 *265:24 result[11] 12.8822 
*END

*D_NET *264 0.000660378
*CONN
*P result[12] O
*I *886:Y O *D BUFx3_ASAP7_75t_R
*CAP
1 result[12] 1.59722e-05
2 *886:Y 2.04527e-06
3 *264:20 0.000156819
4 *264:18 0.000150513
5 *264:8 1.17122e-05
6 result[12] result[11] 1.66433e-06
7 result[12] *265:24 5.60862e-06
8 *264:20 *265:24 0.000316043
*RES
1 *886:Y *264:8 35.6202 
2 *264:8 *264:18 43.7252 
3 *264:18 *264:20 43.1463 
4 *264:20 result[12] 30.3343 
*END

*D_NET *263 0.00017554
*CONN
*P result[13] O
*I *885:Y O *D BUFx3_ASAP7_75t_R
*CAP
1 result[13] 2.44149e-05
2 *885:Y 0
3 *263:12 2.87766e-05
4 *263:6 5.24679e-05
5 *263:4 4.81062e-05
6 result[13] result[19] 2.17749e-05
7 *263:6 *745:6 0
*RES
1 *885:Y *263:4 17.2 
2 *263:4 *263:6 39.0422 
3 *263:6 *263:12 37.122 
4 *263:12 result[13] 15.6376 
*END

*D_NET *262 0.000199392
*CONN
*P result[14] O
*I *876:Y O *D BUFx3_ASAP7_75t_R
*CAP
1 result[14] 3.07664e-05
2 *876:Y 0
3 *262:12 3.24347e-05
4 *262:6 6.77685e-05
5 *262:4 6.61002e-05
6 result[14] result[19] 0
7 *262:6 *745:6 0
8 result[15] result[14] 2.32218e-06
*RES
1 *876:Y *262:4 17.2 
2 *262:4 *262:6 46.5298 
3 *262:6 *262:12 35.2447 
4 *262:12 result[14] 15.6376 
*END

*D_NET *261 0.00034969
*CONN
*P result[15] O
*I *866:Y O *D BUFx3_ASAP7_75t_R
*CAP
1 result[15] 2.50343e-05
2 *866:Y 7.10212e-06
3 *261:22 0.000120823
4 *261:16 0.000141548
5 *261:8 5.28612e-05
6 result[15] result[14] 2.32218e-06
*RES
1 *866:Y *261:8 38.6237 
2 *261:8 *261:16 42.9406 
3 *261:16 *261:22 45.6484 
4 *261:22 result[15] 23.1386 
*END

*D_NET *742 0.000281396
*CONN
*P result[16] O
*I *1532:Y O *D BUFx3_ASAP7_75t_R
*CAP
1 result[16] 2.60108e-06
2 *1532:Y 1.05275e-05
3 *742:24 0.000106515
4 *742:18 0.000126409
5 *742:8 3.30218e-05
6 result[16] result[20] 2.32218e-06
7 *742:24 *747:24 0
*RES
1 *1532:Y *742:8 40.8764 
2 *742:8 *742:18 48.8968 
3 *742:18 *742:24 38.522 
4 *742:24 result[16] 12.8822 
*END

*D_NET *743 0.000176744
*CONN
*P result[17] O
*I *1533:Y O *D BUFx3_ASAP7_75t_R
*CAP
1 result[17] 3.0819e-05
2 *1533:Y 0
3 *743:12 3.29262e-05
4 *743:6 5.63916e-05
5 *743:4 5.42845e-05
6 result[17] result[20] 2.32218e-06
*RES
1 *1533:Y *743:4 17.2 
2 *743:4 *743:6 42.2512 
3 *743:6 *743:12 35.4325 
4 *743:12 result[17] 15.6376 
*END

*D_NET *744 0.000297124
*CONN
*P result[18] O
*I *1534:Y O *D BUFx3_ASAP7_75t_R
*CAP
1 result[18] 2.60108e-06
2 *1534:Y 1.30312e-06
3 *744:24 7.9679e-05
4 *744:18 8.61955e-05
5 *744:8 1.04207e-05
6 result[18] result[22] 2.32218e-06
7 *744:24 *747:24 0
8 *744:24 *748:26 0.000114603
*RES
1 *1534:Y *744:8 35.2447 
2 *744:8 *744:18 44.3516 
3 *744:18 *744:24 42.1687 
4 *744:24 result[18] 12.8822 
*END

*D_NET *745 0.000168703
*CONN
*P result[19] O
*I *1535:Y O *D BUFx3_ASAP7_75t_R
*CAP
1 result[19] 2.50163e-05
2 *1535:Y 0
3 *745:12 2.67655e-05
4 *745:6 4.84477e-05
5 *745:4 4.66986e-05
6 result[13] result[19] 2.17749e-05
7 result[14] result[19] 0
8 *262:6 *745:6 0
9 *263:6 *745:6 0
*RES
1 *1535:Y *745:4 17.2 
2 *745:4 *745:6 39.0422 
3 *745:6 *745:12 35.2447 
4 *745:12 result[19] 15.6376 
*END

*D_NET *746 0.000508775
*CONN
*P result[1] O
*I *1536:Y O *D BUFx3_ASAP7_75t_R
*CAP
1 result[1] 9.29687e-06
2 *1536:Y 2.98258e-06
3 *746:24 9.30286e-05
4 *746:18 8.96286e-05
5 *746:8 8.8795e-06
6 *315:15 result[1] 6.33835e-07
7 *315:15 *746:24 2.3073e-06
8 *583:11 result[1] 2.57981e-06
9 *583:17 *746:24 0.000299154
10 *717:10 *746:8 2.83874e-07
*RES
1 *1536:Y *746:8 36.3711 
2 *746:8 *746:18 42.3829 
3 *746:18 *746:24 42.2488 
4 *746:24 result[1] 15.4794 
*END

*D_NET *747 0.000263606
*CONN
*P result[20] O
*I *1537:Y O *D BUFx3_ASAP7_75t_R
*CAP
1 result[20] 1.8896e-06
2 *1537:Y 1.07073e-06
3 *747:24 0.000117257
4 *747:18 0.000126521
5 *747:8 1.22236e-05
6 result[16] result[20] 2.32218e-06
7 result[17] result[20] 2.32218e-06
8 *742:24 *747:24 0
9 *744:24 *747:24 0
*RES
1 *1537:Y *747:8 35.057 
2 *747:8 *747:18 45.3048 
3 *747:18 *747:24 43.8401 
4 *747:24 result[20] 12.8822 
*END

*D_NET *748 0.000389338
*CONN
*P result[21] O
*I *1538:Y O *D BUFx3_ASAP7_75t_R
*CAP
1 result[21] 4.92326e-06
2 *1538:Y 8.40956e-06
3 *748:26 0.000119055
4 *748:20 0.000123665
5 *748:10 1.79432e-05
6 result[21] result[22] 0
7 *346:12 *748:10 7.3874e-07
8 *744:24 *748:26 0.000114603
*RES
1 *1538:Y *748:10 37.7312 
2 *748:10 *748:20 43.4443 
3 *748:20 *748:26 48.1388 
4 *748:26 result[21] 13.7479 
*END

*D_NET *749 0.000163952
*CONN
*P result[22] O
*I *1539:Y O *D BUFx3_ASAP7_75t_R
*CAP
1 result[22] 3.0809e-05
2 *1539:Y 0
3 *749:12 3.41166e-05
4 *749:6 5.00061e-05
5 *749:4 4.66986e-05
6 result[18] result[22] 2.32218e-06
7 result[21] result[22] 0
*RES
1 *1539:Y *749:4 17.2 
2 *749:4 *749:6 39.0422 
3 *749:6 *749:12 36.1834 
4 *749:12 result[22] 15.6376 
*END

*D_NET *750 0.000331382
*CONN
*P result[2] O
*I *1540:Y O *D BUFx3_ASAP7_75t_R
*CAP
1 result[2] 2.00193e-06
2 *1540:Y 5.76778e-06
3 *750:24 0.000135998
4 *750:18 0.000142893
5 *750:8 1.4665e-05
6 *750:18 *819:12 0
7 *750:24 *835:40 7.47836e-06
8 *275:15 result[2] 2.64633e-06
9 *275:15 *750:24 3.51076e-06
10 *353:10 *750:8 1.64213e-05
*RES
1 *1540:Y *750:8 39.9378 
2 *750:8 *750:18 43.3153 
3 *750:18 *750:24 44.1114 
4 *750:24 result[2] 12.8822 
*END

*D_NET *751 0.000275414
*CONN
*P result[3] O
*I *1541:Y O *D BUFx3_ASAP7_75t_R
*CAP
1 result[3] 2.67346e-06
2 *1541:Y 1.17123e-05
3 *751:26 0.000105971
4 *751:18 0.000123321
5 *751:8 3.17357e-05
6 *57:10 *751:8 0
7 *274:11 result[3] 0
8 *274:17 *751:26 0
*RES
1 *1541:Y *751:8 41.2519 
2 *751:8 *751:18 46.9051 
3 *751:18 *751:26 49.0312 
4 *751:26 result[3] 1.08219 
*END

*D_NET *752 0.000167923
*CONN
*P result[4] O
*I *1542:Y O *D BUFx3_ASAP7_75t_R
*CAP
1 result[4] 3.80664e-05
2 *1542:Y 0
3 *752:8 8.39615e-05
4 *752:6 4.5895e-05
*RES
1 *1542:Y *752:6 34.4 
2 *752:6 *752:8 42.519 
3 *752:8 result[4] 48.6902 
*END

*D_NET *753 0.000274521
*CONN
*P result[5] O
*I *1543:Y O *D BUFx3_ASAP7_75t_R
*CAP
1 result[5] 5.62109e-06
2 *1543:Y 4.09278e-06
3 *753:28 0.000117298
4 *753:20 0.000127547
5 *753:8 1.99627e-05
6 *235:10 *753:8 0
*RES
1 *1543:Y *753:8 36.9342 
2 *753:8 *753:20 44.1222 
3 *753:20 *753:28 46.8505 
4 *753:28 result[5] 13.8513 
*END

*D_NET *754 0.000290728
*CONN
*P result[6] O
*I *1544:Y O *D BUFx2_ASAP7_75t_R
*CAP
1 result[6] 2.35304e-05
2 *1544:Y 3.54631e-06
3 *754:26 0.000132726
4 *754:20 0.000117447
5 *754:8 1.1797e-05
6 *754:26 *755:28 0
7 *690:11 result[6] 0
8 *736:10 *754:8 1.12894e-06
9 *737:8 *754:8 5.52807e-07
*RES
1 *1544:Y *754:8 36.9342 
2 *754:8 *754:20 42.5885 
3 *754:20 *754:26 46.4228 
4 *754:26 result[6] 17.9854 
*END

*D_NET *755 0.000263575
*CONN
*P result[7] O
*I *1545:Y O *D BUFx2_ASAP7_75t_R
*CAP
1 result[7] 5.62109e-06
2 *1545:Y 9.01236e-06
3 *755:28 0.000106631
4 *755:20 0.000117154
5 *755:8 2.5157e-05
6 result[7] result[8] 0
7 *755:28 *756:28 0
8 *754:26 *755:28 0
*RES
1 *1545:Y *755:8 40.8764 
2 *755:8 *755:20 46.4922 
3 *755:20 *755:28 44.9123 
4 *755:28 result[7] 13.8513 
*END

*D_NET *756 0.000281737
*CONN
*P result[8] O
*I *1546:Y O *D BUFx3_ASAP7_75t_R
*CAP
1 result[8] 3.01271e-05
2 *1546:Y 1.46096e-06
3 *756:28 0.00012706
4 *756:20 0.00010928
5 *756:8 1.38082e-05
6 result[8] result[9] 0
7 result[7] result[8] 0
8 *738:10 *756:8 0
9 *755:28 *756:28 0
*RES
1 *1546:Y *756:8 35.4325 
2 *756:8 *756:20 43.7853 
3 *756:20 *756:28 41.37 
4 *756:28 result[8] 27.2226 
*END

*D_NET *757 0.000284389
*CONN
*P result[9] O
*I *1547:Y O *D BUFx3_ASAP7_75t_R
*CAP
1 result[9] 4.61293e-06
2 *1547:Y 7.953e-06
3 *757:28 0.00012491
4 *757:20 0.000129629
5 *757:8 1.72849e-05
6 result[8] result[9] 0
*RES
1 *1547:Y *757:8 39.7501 
2 *757:8 *757:20 42.843 
3 *757:20 *757:28 49.1169 
4 *757:28 result[9] 13.8513 
*END
